Fe16 Cu16 S32
1.0
10.515453 0.000000 0.055058
0.000000 10.516270 0.000000
0.054508 0.000000 10.410377
S Cu Fe
32 16 16
direct
0.126163 0.124351 0.125105 S
0.626163 0.124351 0.125105 S
0.126163 0.624351 0.125105 S
0.626163 0.624351 0.125105 S
0.373837 0.374351 0.124895 S
0.873837 0.374351 0.124895 S
0.373837 0.874351 0.124895 S
0.873837 0.874351 0.124895 S
0.125000 0.373386 0.875000 S
0.625000 0.373386 0.875000 S
0.125000 0.873386 0.875000 S
0.625000 0.873386 0.875000 S
0.375000 0.125681 0.875000 S
0.875000 0.125681 0.875000 S
0.375000 0.625681 0.875000 S
0.875000 0.625681 0.875000 S
0.123837 0.124351 0.624895 S
0.623837 0.124351 0.624895 S
0.123837 0.624351 0.624895 S
0.623837 0.624351 0.624895 S
0.376163 0.374351 0.625105 S
0.876163 0.374351 0.625105 S
0.376163 0.874351 0.625105 S
0.876163 0.874351 0.625105 S
0.375000 0.123386 0.375000 S
0.875000 0.123386 0.375000 S
0.375000 0.623386 0.375000 S
0.875000 0.623386 0.375000 S
0.125000 0.375681 0.375000 S
0.625000 0.375681 0.375000 S
0.125000 0.875681 0.375000 S
0.625000 0.875681 0.375000 S
-0.000189 0.000570 0.500001 Cu
0.499811 0.000570 0.500001 Cu
-0.000189 0.500570 0.500001 Cu
0.499811 0.500570 0.500001 Cu
0.250189 0.000570 0.249999 Cu
0.750189 0.000570 0.249999 Cu
0.250189 0.500570 0.249999 Cu
0.750189 0.500570 0.249999 Cu
0.249811 0.250570 0.000001 Cu
0.749811 0.250570 0.000001 Cu
0.249811 0.750570 0.000001 Cu
0.749811 0.750570 0.000001 Cu
0.000189 0.250570 0.749999 Cu
0.500189 0.250570 0.749999 Cu
0.000189 0.750570 0.749999 Cu
0.500189 0.750570 0.749999 Cu
-0.000094 0.000546 0.000017 Fe
0.499906 0.000546 0.000017 Fe
-0.000094 0.500546 0.000017 Fe
0.499906 0.500546 0.000017 Fe
0.250094 0.000546 0.749983 Fe
0.750094 0.000546 0.749983 Fe
0.250094 0.500546 0.749983 Fe
0.750094 0.500546 0.749983 Fe
0.249906 0.250546 0.500017 Fe
0.749906 0.250546 0.500017 Fe
0.249906 0.750546 0.500017 Fe
0.749906 0.750546 0.500017 Fe
0.000094 0.250546 0.249983 Fe
0.500094 0.250546 0.249983 Fe
0.000094 0.750546 0.249983 Fe
0.500094 0.750546 0.249983 Fe
