Fe16 Cu16 S32
1.0
10.490325 0.586575 0.000000
0.586575 10.490325 0.000000
0.000000 0.000000 10.437837
S Cu Fe
32 16 16
direct
0.126046 0.125639 0.118925 S
0.626046 0.125639 0.118925 S
0.126046 0.625639 0.118925 S
0.626046 0.625639 0.118925 S
0.373954 0.374361 0.118925 S
0.873954 0.374361 0.118925 S
0.373954 0.874361 0.118925 S
0.873954 0.874361 0.118925 S
0.124361 0.373954 0.868925 S
0.624361 0.373954 0.868925 S
0.124361 0.873954 0.868925 S
0.624361 0.873954 0.868925 S
0.375639 0.126046 0.868925 S
0.875639 0.126046 0.868925 S
0.375639 0.626046 0.868925 S
0.875639 0.626046 0.868925 S
0.123954 0.124361 0.618925 S
0.623954 0.124361 0.618925 S
0.123954 0.624361 0.618925 S
0.623954 0.624361 0.618925 S
0.376046 0.375639 0.618925 S
0.876046 0.375639 0.618925 S
0.376046 0.875639 0.618925 S
0.876046 0.875639 0.618925 S
0.374361 0.123954 0.368925 S
0.874361 0.123954 0.368925 S
0.374361 0.623954 0.368925 S
0.874361 0.623954 0.368925 S
0.125639 0.376046 0.368925 S
0.625639 0.376046 0.368925 S
0.125639 0.876046 0.368925 S
0.625639 0.876046 0.368925 S
0.000000 0.000000 0.505246 Cu
0.500000 0.000000 0.505246 Cu
0.000000 0.500000 0.505246 Cu
0.500000 0.500000 0.505246 Cu
0.250000 0.000000 0.255246 Cu
0.750000 0.000000 0.255246 Cu
0.250000 0.500000 0.255246 Cu
0.750000 0.500000 0.255246 Cu
0.250000 0.250000 0.005246 Cu
0.750000 0.250000 0.005246 Cu
0.250000 0.750000 0.005246 Cu
0.750000 0.750000 0.005246 Cu
0.000000 0.250000 0.755246 Cu
0.500000 0.250000 0.755246 Cu
0.000000 0.750000 0.755246 Cu
0.500000 0.750000 0.755246 Cu
0.000000 0.000000 0.006905 Fe
0.500000 0.000000 0.006905 Fe
0.000000 0.500000 0.006905 Fe
0.500000 0.500000 0.006905 Fe
0.250000 0.000000 0.756905 Fe
0.750000 0.000000 0.756905 Fe
0.250000 0.500000 0.756905 Fe
0.750000 0.500000 0.756905 Fe
0.250000 0.250000 0.506905 Fe
0.750000 0.250000 0.506905 Fe
0.250000 0.750000 0.506905 Fe
0.750000 0.750000 0.506905 Fe
0.000000 0.250000 0.256905 Fe
0.500000 0.250000 0.256905 Fe
0.000000 0.750000 0.256905 Fe
0.500000 0.750000 0.256905 Fe
