Fe16 Cu16 S32
1.0
10.489997 0.000000 0.660056
0.000000 10.536653 0.000000
0.653461 0.000000 10.385176
S Cu Fe
32 16 16
direct
0.126661 0.116742 0.126179 S
0.626661 0.116742 0.126179 S
0.126661 0.616742 0.126179 S
0.626661 0.616742 0.126179 S
0.373339 0.366742 0.123821 S
0.873339 0.366742 0.123821 S
0.373339 0.866742 0.123821 S
0.873339 0.866742 0.123821 S
0.125000 0.369712 0.875000 S
0.625000 0.369712 0.875000 S
0.125000 0.869712 0.875000 S
0.625000 0.869712 0.875000 S
0.375000 0.120779 0.875000 S
0.875000 0.120779 0.875000 S
0.375000 0.620779 0.875000 S
0.875000 0.620779 0.875000 S
0.123339 0.116742 0.623821 S
0.623339 0.116742 0.623821 S
0.123339 0.616742 0.623821 S
0.623339 0.616742 0.623821 S
0.376661 0.366742 0.626179 S
0.876661 0.366742 0.626179 S
0.376661 0.866742 0.626179 S
0.876661 0.866742 0.626179 S
0.375000 0.119712 0.375000 S
0.875000 0.119712 0.375000 S
0.375000 0.619712 0.375000 S
0.875000 0.619712 0.375000 S
0.125000 0.370779 0.375000 S
0.625000 0.370779 0.375000 S
0.125000 0.870779 0.375000 S
0.625000 0.870779 0.375000 S
-0.003372 0.006536 0.500030 Cu
0.496628 0.006536 0.500030 Cu
-0.003372 0.506536 0.500030 Cu
0.496628 0.506536 0.500030 Cu
0.253372 0.006536 0.249970 Cu
0.753372 0.006536 0.249970 Cu
0.253372 0.506536 0.249970 Cu
0.753372 0.506536 0.249970 Cu
0.246628 0.256536 0.000030 Cu
0.746628 0.256536 0.000030 Cu
0.246628 0.756536 0.000030 Cu
0.746628 0.756536 0.000030 Cu
0.003372 0.256536 0.749970 Cu
0.503372 0.256536 0.749970 Cu
0.003372 0.756536 0.749970 Cu
0.503372 0.756536 0.749970 Cu
-0.002106 0.006477 0.001407 Fe
0.497894 0.006477 0.001407 Fe
-0.002106 0.506477 0.001407 Fe
0.497894 0.506477 0.001407 Fe
0.252106 0.006477 0.748593 Fe
0.752106 0.006477 0.748593 Fe
0.252106 0.506477 0.748593 Fe
0.752106 0.506477 0.748593 Fe
0.247894 0.256477 0.501407 Fe
0.747894 0.256477 0.501407 Fe
0.247894 0.756477 0.501407 Fe
0.747894 0.756477 0.501407 Fe
0.002106 0.256477 0.248593 Fe
0.502106 0.256477 0.248593 Fe
0.002106 0.756477 0.248593 Fe
0.502106 0.756477 0.248593 Fe
