Fe16 Cu16 S32
1.0
10.491925 0.549914 0.000000
0.549914 10.491925 0.000000
0.000000 0.000000 10.434898
S Cu Fe
32 16 16
direct
0.126050 0.125542 0.119377 S
0.626050 0.125542 0.119377 S
0.126050 0.625542 0.119377 S
0.626050 0.625542 0.119377 S
0.373950 0.374458 0.119377 S
0.873950 0.374458 0.119377 S
0.373950 0.874458 0.119377 S
0.873950 0.874458 0.119377 S
0.124458 0.373950 0.869377 S
0.624458 0.373950 0.869377 S
0.124458 0.873950 0.869377 S
0.624458 0.873950 0.869377 S
0.375542 0.126050 0.869377 S
0.875542 0.126050 0.869377 S
0.375542 0.626050 0.869377 S
0.875542 0.626050 0.869377 S
0.123950 0.124458 0.619377 S
0.623950 0.124458 0.619377 S
0.123950 0.624458 0.619377 S
0.623950 0.624458 0.619377 S
0.376050 0.375542 0.619377 S
0.876050 0.375542 0.619377 S
0.376050 0.875542 0.619377 S
0.876050 0.875542 0.619377 S
0.374458 0.123950 0.369377 S
0.874458 0.123950 0.369377 S
0.374458 0.623950 0.369377 S
0.874458 0.623950 0.369377 S
0.125542 0.376050 0.369377 S
0.625542 0.376050 0.369377 S
0.125542 0.876050 0.369377 S
0.625542 0.876050 0.369377 S
0.000000 0.000000 0.504919 Cu
0.500000 0.000000 0.504919 Cu
0.000000 0.500000 0.504919 Cu
0.500000 0.500000 0.504919 Cu
0.250000 0.000000 0.254919 Cu
0.750000 0.000000 0.254919 Cu
0.250000 0.500000 0.254919 Cu
0.750000 0.500000 0.254919 Cu
0.250000 0.250000 0.004919 Cu
0.750000 0.250000 0.004919 Cu
0.250000 0.750000 0.004919 Cu
0.750000 0.750000 0.004919 Cu
0.000000 0.250000 0.754919 Cu
0.500000 0.250000 0.754919 Cu
0.000000 0.750000 0.754919 Cu
0.500000 0.750000 0.754919 Cu
0.000000 0.000000 0.006326 Fe
0.500000 0.000000 0.006326 Fe
0.000000 0.500000 0.006326 Fe
0.500000 0.500000 0.006326 Fe
0.250000 0.000000 0.756326 Fe
0.750000 0.000000 0.756326 Fe
0.250000 0.500000 0.756326 Fe
0.750000 0.500000 0.756326 Fe
0.250000 0.250000 0.506326 Fe
0.750000 0.250000 0.506326 Fe
0.250000 0.750000 0.506326 Fe
0.750000 0.750000 0.506326 Fe
0.000000 0.250000 0.256326 Fe
0.500000 0.250000 0.256326 Fe
0.000000 0.750000 0.256326 Fe
0.500000 0.750000 0.256326 Fe
