Primitive Cell
  1.000000
    0.00000000000000    3.77992309098626    5.21041000000000
    3.65030688246086    0.00000000000000    5.21041000000000
    3.65030688246086    3.77992309098626    0.00000000000000
  S   Cu  Fe
   4   2   2
DIRECT
    0.1246420000000005    0.6292540000000004    0.8726200000000002     S1
    0.6292540000000004    0.1246420000000006    0.3734839999999989     S2
    0.3773799999999997    0.8765160000000013    0.1253579999999995     S3
    0.8765160000000013    0.3773799999999997    0.6207459999999997     S4
    0.9983390000000004    0.9983390000000004    0.5016609999999996    Cu1
    0.7483390000000005    0.7483390000000005    0.2516609999999995    Cu2
    0.4977650000000004    0.4977650000000004    0.0022349999999996    Fe1
    0.2477650000000005    0.2477650000000005    0.7522349999999995    Fe2
