Fe16 Cu16 S32
1.0
10.483922 0.733219 0.000000
0.733219 10.483922 0.000000
0.000000 0.000000 10.442913
S Cu Fe
32 16 16
direct
0.126015 0.125722 0.117503 S
0.626015 0.125722 0.117503 S
0.126015 0.625722 0.117503 S
0.626015 0.625722 0.117503 S
0.373985 0.374278 0.117503 S
0.873985 0.374278 0.117503 S
0.373985 0.874278 0.117503 S
0.873985 0.874278 0.117503 S
0.124278 0.373985 0.867503 S
0.624278 0.373985 0.867503 S
0.124278 0.873985 0.867503 S
0.624278 0.873985 0.867503 S
0.375722 0.126015 0.867503 S
0.875722 0.126015 0.867503 S
0.375722 0.626015 0.867503 S
0.875722 0.626015 0.867503 S
0.123985 0.124278 0.617503 S
0.623985 0.124278 0.617503 S
0.123985 0.624278 0.617503 S
0.623985 0.624278 0.617503 S
0.376015 0.375722 0.617503 S
0.876015 0.375722 0.617503 S
0.376015 0.875722 0.617503 S
0.876015 0.875722 0.617503 S
0.374278 0.123985 0.367503 S
0.874278 0.123985 0.367503 S
0.374278 0.623985 0.367503 S
0.874278 0.623985 0.367503 S
0.125722 0.376015 0.367503 S
0.625722 0.376015 0.367503 S
0.125722 0.876015 0.367503 S
0.625722 0.876015 0.367503 S
0.000000 0.000000 0.506559 Cu
0.500000 0.000000 0.506559 Cu
0.000000 0.500000 0.506559 Cu
0.500000 0.500000 0.506559 Cu
0.250000 0.000000 0.256559 Cu
0.750000 0.000000 0.256559 Cu
0.250000 0.500000 0.256559 Cu
0.750000 0.500000 0.256559 Cu
0.250000 0.250000 0.006559 Cu
0.750000 0.250000 0.006559 Cu
0.250000 0.750000 0.006559 Cu
0.750000 0.750000 0.006559 Cu
0.000000 0.250000 0.756559 Cu
0.500000 0.250000 0.756559 Cu
0.000000 0.750000 0.756559 Cu
0.500000 0.750000 0.756559 Cu
0.000000 0.000000 0.008435 Fe
0.500000 0.000000 0.008435 Fe
0.000000 0.500000 0.008435 Fe
0.500000 0.500000 0.008435 Fe
0.250000 0.000000 0.758435 Fe
0.750000 0.000000 0.758435 Fe
0.250000 0.500000 0.758435 Fe
0.750000 0.500000 0.758435 Fe
0.250000 0.250000 0.508435 Fe
0.750000 0.250000 0.508435 Fe
0.250000 0.750000 0.508435 Fe
0.750000 0.750000 0.508435 Fe
0.000000 0.250000 0.258435 Fe
0.500000 0.250000 0.258435 Fe
0.000000 0.750000 0.258435 Fe
0.500000 0.750000 0.258435 Fe
