generated by phonopy                    
   1.00000000000000     
    10.5159349441999996    0.0000000000000000    0.0000000000000000
     0.0000000000000000   10.5162149616716114    0.0000000000000000
     0.1816944613000000    0.0000000000000000   10.4092687160999997
   S    Cu   Fe
    32    16    16
Direct
  0.1261645031006253  0.1239068868403166  0.1251838818396038
  0.6261644881006276  0.1239068868403166  0.1251838818396038
  0.1261645031006253  0.6239068868403166  0.1251838818396038
  0.6261644881006276  0.6239068868403166  0.1251838818396038
  0.3738355118993653  0.3739068868403166  0.1248161181603962
  0.8738355118993724  0.3739068868403166  0.1248161181603962
  0.3738355118993653  0.8739068868403166  0.1248161181603962
  0.8738355118993724  0.8739068868403166  0.1248161181603962
  0.1250000000000000  0.3730868830262040  0.8750000000000000
  0.6250000000000000  0.3730868830262040  0.8750000000000000
  0.1250000000000000  0.8730868830262111  0.8750000000000000
  0.6250000000000000  0.8730868830262111  0.8750000000000000
  0.3750000000000000  0.1253805423743302  0.8750000000000000
  0.8750000000000000  0.1253805423743302  0.8750000000000000
  0.3750000000000000  0.6253805273743254  0.8750000000000000
  0.8750000000000000  0.6253805273743254  0.8750000000000000
  0.1238355038993788  0.1239068868403166  0.6248161181603962
  0.6238355118993724  0.1239068868403166  0.6248161181603962
  0.1238355038993788  0.6239068868403166  0.6248161181603962
  0.6238355118993724  0.6239068868403166  0.6248161181603962
  0.3761644881006347  0.3739068868403166  0.6251838818396038
  0.8761644881006276  0.3739068868403166  0.6251838818396038
  0.3761644881006347  0.8739068868403166  0.6251838818396038
  0.8761644881006276  0.8739068868403166  0.6251838818396038
  0.3750000000000000  0.1230868750262104  0.3750000000000000
  0.8750000000000000  0.1230868750262104  0.3750000000000000
  0.3750000000000000  0.6230868830262111  0.3750000000000000
  0.8750000000000000  0.6230868830262111  0.3750000000000000
  0.1250000000000000  0.3753805273743254  0.3750000000000000
  0.6250000000000000  0.3753805273743254  0.3750000000000000
  0.1250000000000000  0.8753805273743254  0.3750000000000000
  0.6250000000000000  0.8753805273743254  0.3750000000000000
  0.9996634522154224  0.0009428460430243  0.4999961894947376
  0.4996634522154224  0.0009428460430243  0.4999961894947376
  0.9996634522154224  0.5009428460430243  0.4999961894947376
  0.4996634522154224  0.5009428460430243  0.4999961894947376
  0.2503365477845776  0.0009428460430243  0.2500038105052695
  0.7503365477845776  0.0009428460430243  0.2500038105052695
  0.2503365477845776  0.5009428460430243  0.2500038105052695
  0.7503365477845776  0.5009428460430243  0.2500038105052695
  0.2496634522154224  0.2509428460430243  0.9999961894947447
  0.7496634522154224  0.2509428460430243  0.9999961894947447
  0.2496634522154224  0.7509428460430243  0.9999961894947447
  0.7496634522154224  0.7509428460430243  0.9999961894947447
  0.0003365477845776  0.2509428460430243  0.7500038105052553
  0.5003365477845776  0.2509428460430243  0.7500038105052553
  0.0003365477845776  0.7509428460430243  0.7500038105052553
  0.5003365477845776  0.7509428460430243  0.7500038105052553
  0.9998355784816368  0.0009165619163838  0.0000173969449904
  0.4998355784816368  0.0009165619163838  0.0000173969449904
  0.9998355784816368  0.5009165619163909  0.0000173969449904
  0.4998355784816368  0.5009165619163909  0.0000173969449904
  0.2501644215183632  0.0009165619163838  0.7499826030550096
  0.7501644215183632  0.0009165619163838  0.7499826030550096
  0.2501644215183632  0.5009165619163909  0.7499826030550096
  0.7501644215183632  0.5009165619163909  0.7499826030550096
  0.2498355784816368  0.2509165619163838  0.5000173969449904
  0.7498355784816368  0.2509165619163838  0.5000173969449904
  0.2498355784816368  0.7509165619163909  0.5000173969449904
  0.7498355784816368  0.7509165619163909  0.5000173969449904
  0.0001644215183632  0.2509165619163838  0.2499826030550096
  0.5001644215183632  0.2509165619163838  0.2499826030550096
  0.0001644215183632  0.7509165619163909  0.2499826030550096
  0.5001644215183632  0.7509165619163909  0.2499826030550096
 
  0.00000000E+00  0.00000000E+00  0.00000000E+00
  0.00000000E+00  0.00000000E+00  0.00000000E+00
  0.00000000E+00  0.00000000E+00  0.00000000E+00
  0.00000000E+00  0.00000000E+00  0.00000000E+00
  0.00000000E+00  0.00000000E+00  0.00000000E+00
  0.00000000E+00  0.00000000E+00  0.00000000E+00
  0.00000000E+00  0.00000000E+00  0.00000000E+00
  0.00000000E+00  0.00000000E+00  0.00000000E+00
  0.00000000E+00  0.00000000E+00  0.00000000E+00
  0.00000000E+00  0.00000000E+00  0.00000000E+00
  0.00000000E+00  0.00000000E+00  0.00000000E+00
  0.00000000E+00  0.00000000E+00  0.00000000E+00
  0.00000000E+00  0.00000000E+00  0.00000000E+00
  0.00000000E+00  0.00000000E+00  0.00000000E+00
  0.00000000E+00  0.00000000E+00  0.00000000E+00
  0.00000000E+00  0.00000000E+00  0.00000000E+00
  0.00000000E+00  0.00000000E+00  0.00000000E+00
  0.00000000E+00  0.00000000E+00  0.00000000E+00
  0.00000000E+00  0.00000000E+00  0.00000000E+00
  0.00000000E+00  0.00000000E+00  0.00000000E+00
  0.00000000E+00  0.00000000E+00  0.00000000E+00
  0.00000000E+00  0.00000000E+00  0.00000000E+00
  0.00000000E+00  0.00000000E+00  0.00000000E+00
  0.00000000E+00  0.00000000E+00  0.00000000E+00
  0.00000000E+00  0.00000000E+00  0.00000000E+00
  0.00000000E+00  0.00000000E+00  0.00000000E+00
  0.00000000E+00  0.00000000E+00  0.00000000E+00
  0.00000000E+00  0.00000000E+00  0.00000000E+00
  0.00000000E+00  0.00000000E+00  0.00000000E+00
  0.00000000E+00  0.00000000E+00  0.00000000E+00
  0.00000000E+00  0.00000000E+00  0.00000000E+00
  0.00000000E+00  0.00000000E+00  0.00000000E+00
  0.00000000E+00  0.00000000E+00  0.00000000E+00
  0.00000000E+00  0.00000000E+00  0.00000000E+00
  0.00000000E+00  0.00000000E+00  0.00000000E+00
  0.00000000E+00  0.00000000E+00  0.00000000E+00
  0.00000000E+00  0.00000000E+00  0.00000000E+00
  0.00000000E+00  0.00000000E+00  0.00000000E+00
  0.00000000E+00  0.00000000E+00  0.00000000E+00
  0.00000000E+00  0.00000000E+00  0.00000000E+00
  0.00000000E+00  0.00000000E+00  0.00000000E+00
  0.00000000E+00  0.00000000E+00  0.00000000E+00
  0.00000000E+00  0.00000000E+00  0.00000000E+00
  0.00000000E+00  0.00000000E+00  0.00000000E+00
  0.00000000E+00  0.00000000E+00  0.00000000E+00
  0.00000000E+00  0.00000000E+00  0.00000000E+00
  0.00000000E+00  0.00000000E+00  0.00000000E+00
  0.00000000E+00  0.00000000E+00  0.00000000E+00
  0.00000000E+00  0.00000000E+00  0.00000000E+00
  0.00000000E+00  0.00000000E+00  0.00000000E+00
  0.00000000E+00  0.00000000E+00  0.00000000E+00
  0.00000000E+00  0.00000000E+00  0.00000000E+00
  0.00000000E+00  0.00000000E+00  0.00000000E+00
  0.00000000E+00  0.00000000E+00  0.00000000E+00
  0.00000000E+00  0.00000000E+00  0.00000000E+00
  0.00000000E+00  0.00000000E+00  0.00000000E+00
  0.00000000E+00  0.00000000E+00  0.00000000E+00
  0.00000000E+00  0.00000000E+00  0.00000000E+00
  0.00000000E+00  0.00000000E+00  0.00000000E+00
  0.00000000E+00  0.00000000E+00  0.00000000E+00
  0.00000000E+00  0.00000000E+00  0.00000000E+00
  0.00000000E+00  0.00000000E+00  0.00000000E+00
  0.00000000E+00  0.00000000E+00  0.00000000E+00
  0.00000000E+00  0.00000000E+00  0.00000000E+00
