Fe16 Cu16 S32
1.0
10.502960 0.000000 0.495325
0.000000 10.524932 0.000000
0.490376 0.000000 10.398009
S Cu Fe
32 16 16
direct
0.126380 0.118975 0.125906 S
0.626380 0.118975 0.125906 S
0.126380 0.618975 0.125906 S
0.626380 0.618975 0.125906 S
0.373620 0.368975 0.124094 S
0.873620 0.368975 0.124094 S
0.373620 0.868975 0.124094 S
0.873620 0.868975 0.124094 S
0.125000 0.370246 0.875000 S
0.625000 0.370246 0.875000 S
0.125000 0.870246 0.875000 S
0.625000 0.870246 0.875000 S
0.375000 0.121943 0.875000 S
0.875000 0.121943 0.875000 S
0.375000 0.621943 0.875000 S
0.875000 0.621943 0.875000 S
0.123620 0.118975 0.624094 S
0.623620 0.118975 0.624094 S
0.123620 0.618975 0.624094 S
0.623620 0.618975 0.624094 S
0.376380 0.368975 0.625906 S
0.876380 0.368975 0.625906 S
0.376380 0.868975 0.625906 S
0.876380 0.868975 0.625906 S
0.375000 0.120246 0.375000 S
0.875000 0.120246 0.375000 S
0.375000 0.620246 0.375000 S
0.875000 0.620246 0.375000 S
0.125000 0.371943 0.375000 S
0.625000 0.371943 0.375000 S
0.125000 0.871943 0.375000 S
0.625000 0.871943 0.375000 S
-0.002099 0.005053 0.499995 Cu
0.497901 0.005053 0.499995 Cu
-0.002099 0.505053 0.499995 Cu
0.497901 0.505053 0.499995 Cu
0.252099 0.005053 0.250005 Cu
0.752099 0.005053 0.250005 Cu
0.252099 0.505053 0.250005 Cu
0.752099 0.505053 0.250005 Cu
0.247901 0.255053 -0.000005 Cu
0.747901 0.255053 -0.000005 Cu
0.247901 0.755053 -0.000005 Cu
0.747901 0.755053 -0.000005 Cu
0.002099 0.255053 0.750005 Cu
0.502099 0.255053 0.750005 Cu
0.002099 0.755053 0.750005 Cu
0.502099 0.755053 0.750005 Cu
-0.001188 0.004878 0.000600 Fe
0.498812 0.004878 0.000600 Fe
-0.001188 0.504878 0.000600 Fe
0.498812 0.504878 0.000600 Fe
0.251188 0.004878 0.749400 Fe
0.751188 0.004878 0.749400 Fe
0.251188 0.504878 0.749400 Fe
0.751188 0.504878 0.749400 Fe
0.248812 0.254878 0.500600 Fe
0.748812 0.254878 0.500600 Fe
0.248812 0.754878 0.500600 Fe
0.748812 0.754878 0.500600 Fe
0.001188 0.254878 0.249400 Fe
0.501188 0.254878 0.249400 Fe
0.001188 0.754878 0.249400 Fe
0.501188 0.754878 0.249400 Fe
