sm_isp_SD0310437-standardized_unitcell  
   1.00000000000000     
     5.2061977989649284    0.0000000000000000    0.0000000000000000
     0.0000000000000000    5.3308522994482246    0.0000000000000000
     0.0000000000000000    0.0000000000000000   10.3042513968637319
   S    Cu   Fe
     8     4     4
Direct
  0.2523455862791195  0.2500000000000000  0.1250000000000000
  0.7476544437208688  0.7500000000000000  0.1250000000000000
  0.2500000000000000  0.7474919038171421  0.8750000000000000
  0.7500000000000000  0.2525081261828603  0.8750000000000000
  0.2476544137208734  0.2500000000000000  0.6250000000000000
  0.7523455562791312  0.7500000000000000  0.6250000000000000
  0.7500000000000000  0.2474918738171397  0.3750000000000000
  0.2500000000000000  0.7525080961828579  0.3750000000000000
  0.0000000000000000  0.0000000000000000  0.5001831319801511
  0.5000000000000000  0.0000000000000000  0.2498168680198489
  0.5000000000000000  0.5000000000000000  0.0001831319801511
  0.0000000000000000  0.5000000000000000  0.7498168680198489
  0.0000000000000000  0.0000000000000000  0.0000052983091834
  0.5000000000000000  0.0000000000000000  0.7499947016908166
  0.5000000000000000  0.5000000000000000  0.5000052983091834
  0.0000000000000000  0.5000000000000000  0.2499947016908166
 
  0.00000000E+00  0.00000000E+00  0.00000000E+00
  0.00000000E+00  0.00000000E+00  0.00000000E+00
  0.00000000E+00  0.00000000E+00  0.00000000E+00
  0.00000000E+00  0.00000000E+00  0.00000000E+00
  0.00000000E+00  0.00000000E+00  0.00000000E+00
  0.00000000E+00  0.00000000E+00  0.00000000E+00
  0.00000000E+00  0.00000000E+00  0.00000000E+00
  0.00000000E+00  0.00000000E+00  0.00000000E+00
  0.00000000E+00  0.00000000E+00  0.00000000E+00
  0.00000000E+00  0.00000000E+00  0.00000000E+00
  0.00000000E+00  0.00000000E+00  0.00000000E+00
  0.00000000E+00  0.00000000E+00  0.00000000E+00
  0.00000000E+00  0.00000000E+00  0.00000000E+00
  0.00000000E+00  0.00000000E+00  0.00000000E+00
  0.00000000E+00  0.00000000E+00  0.00000000E+00
  0.00000000E+00  0.00000000E+00  0.00000000E+00
