sm_isp_SD0310437-standardized_unitcell  
   1.00000000000000     
     5.1536099424097266    0.0000000000000000    0.0000000000000000
     0.0000000000000000    5.1536099424097266    0.0000000000000000
     0.0000000000000000    0.0000000000000000   10.7167953252384844
   S    Cu   Fe
     8     4     4
Direct
  0.2528537955081589  0.2500000000000000  0.1250000000000000
  0.7471462344918365  0.7500000000000000  0.1250000000000000
  0.2500000000000000  0.7471462344918365  0.8750000000000000
  0.7500000000000000  0.2528537955081589  0.8750000000000000
  0.2471462044918411  0.2500000000000000  0.6250000000000000
  0.7528537655081635  0.7500000000000000  0.6250000000000000
  0.7500000000000000  0.2471462044918411  0.3750000000000000
  0.2500000000000000  0.7528537655081635  0.3750000000000000
  0.0000000000000000  0.0000000000000000  0.5000000000000000
  0.5000000000000000  0.0000000000000000  0.2500000000000000
  0.5000000000000000  0.5000000000000000  0.0000000000000000
  0.0000000000000000  0.5000000000000000  0.7500000000000000
  0.0000000000000000  0.0000000000000000  0.0000000000000000
  0.5000000000000000  0.0000000000000000  0.7500000000000000
  0.5000000000000000  0.5000000000000000  0.5000000000000000
  0.0000000000000000  0.5000000000000000  0.2500000000000000
 
  0.00000000E+00  0.00000000E+00  0.00000000E+00
  0.00000000E+00  0.00000000E+00  0.00000000E+00
  0.00000000E+00  0.00000000E+00  0.00000000E+00
  0.00000000E+00  0.00000000E+00  0.00000000E+00
  0.00000000E+00  0.00000000E+00  0.00000000E+00
  0.00000000E+00  0.00000000E+00  0.00000000E+00
  0.00000000E+00  0.00000000E+00  0.00000000E+00
  0.00000000E+00  0.00000000E+00  0.00000000E+00
  0.00000000E+00  0.00000000E+00  0.00000000E+00
  0.00000000E+00  0.00000000E+00  0.00000000E+00
  0.00000000E+00  0.00000000E+00  0.00000000E+00
  0.00000000E+00  0.00000000E+00  0.00000000E+00
  0.00000000E+00  0.00000000E+00  0.00000000E+00
  0.00000000E+00  0.00000000E+00  0.00000000E+00
  0.00000000E+00  0.00000000E+00  0.00000000E+00
  0.00000000E+00  0.00000000E+00  0.00000000E+00
