Fe4 Cu4 S8                              
   1.00000000000000     
     5.2467790000000001    0.0000000000000000    0.2750000000000000
     0.0000000000000000    5.2713536895130124    0.0000000000000000
     0.5442880000000000    0.0000000000000000   10.3845709999999993
   S    Cu   Fe
     8     4     4
Direct
  0.2529631406646544  0.2365636098727606  0.1261080937835786
  0.7470368593353314  0.7365636098727677  0.1238919062164214
  0.2500000000000000  0.7396676512739617  0.8750000000000000
  0.7500000000000000  0.2432086952577990  0.8750000000000000
  0.2470368593353456  0.2365636098727606  0.6238919062164285
  0.7529631406646686  0.7365636098727677  0.6261080937835715
  0.7500000000000000  0.2396676512739546  0.3750000000000000
  0.2500000000000000  0.7432086952577919  0.3750000000000000
  0.9950064231157398  0.0110848844241787  0.5000263029623468
  0.5049935768842531  0.0110848844241787  0.2499736970376460
  0.4950064231157398  0.5110848844241787  0.0000263029623468
  0.0049935768842602  0.5110848844241787  0.7499736970376532
  0.9973347618533381  0.0109133324371768  0.0006903527892064
  0.5026652381466619  0.0109133324371768  0.7493096472107794
  0.4973347618533310  0.5109133324371840  0.5006903527892206
  0.0026652381466619  0.5109133324371840  0.2493096472107865
 
  0.00000000E+00  0.00000000E+00  0.00000000E+00
  0.00000000E+00  0.00000000E+00  0.00000000E+00
  0.00000000E+00  0.00000000E+00  0.00000000E+00
  0.00000000E+00  0.00000000E+00  0.00000000E+00
  0.00000000E+00  0.00000000E+00  0.00000000E+00
  0.00000000E+00  0.00000000E+00  0.00000000E+00
  0.00000000E+00  0.00000000E+00  0.00000000E+00
  0.00000000E+00  0.00000000E+00  0.00000000E+00
  0.00000000E+00  0.00000000E+00  0.00000000E+00
  0.00000000E+00  0.00000000E+00  0.00000000E+00
  0.00000000E+00  0.00000000E+00  0.00000000E+00
  0.00000000E+00  0.00000000E+00  0.00000000E+00
  0.00000000E+00  0.00000000E+00  0.00000000E+00
  0.00000000E+00  0.00000000E+00  0.00000000E+00
  0.00000000E+00  0.00000000E+00  0.00000000E+00
  0.00000000E+00  0.00000000E+00  0.00000000E+00
