Fe16 Cu16 S32
1.0
10.514334 0.036661 0.000000
0.036661 10.514334 0.000000
0.000000 0.000000 10.412810
S Cu Fe
32 16 16
direct
0.126154 0.125040 0.124611 S
0.626154 0.125040 0.124611 S
0.126154 0.625040 0.124611 S
0.626154 0.625040 0.124611 S
0.373846 0.374960 0.124611 S
0.873846 0.374960 0.124611 S
0.373846 0.874960 0.124611 S
0.873846 0.874960 0.124611 S
0.124960 0.373846 0.874611 S
0.624960 0.373846 0.874611 S
0.124960 0.873846 0.874611 S
0.624960 0.873846 0.874611 S
0.375040 0.126154 0.874611 S
0.875040 0.126154 0.874611 S
0.375040 0.626154 0.874611 S
0.875040 0.626154 0.874611 S
0.123846 0.124960 0.624611 S
0.623846 0.124960 0.624611 S
0.123846 0.624960 0.624611 S
0.623846 0.624960 0.624611 S
0.376154 0.375040 0.624611 S
0.876154 0.375040 0.624611 S
0.376154 0.875040 0.624611 S
0.876154 0.875040 0.624611 S
0.374960 0.123846 0.374611 S
0.874960 0.123846 0.374611 S
0.374960 0.623846 0.374611 S
0.874960 0.623846 0.374611 S
0.125040 0.376154 0.374611 S
0.625040 0.376154 0.374611 S
0.125040 0.876154 0.374611 S
0.625040 0.876154 0.374611 S
0.000000 0.000000 0.500338 Cu
0.500000 0.000000 0.500338 Cu
0.000000 0.500000 0.500338 Cu
0.500000 0.500000 0.500338 Cu
0.250000 0.000000 0.250338 Cu
0.750000 0.000000 0.250338 Cu
0.250000 0.500000 0.250338 Cu
0.750000 0.500000 0.250338 Cu
0.250000 0.250000 0.000338 Cu
0.750000 0.250000 0.000338 Cu
0.250000 0.750000 0.000338 Cu
0.750000 0.750000 0.000338 Cu
0.000000 0.250000 0.750338 Cu
0.500000 0.250000 0.750338 Cu
0.000000 0.750000 0.750338 Cu
0.500000 0.750000 0.750338 Cu
0.000000 0.000000 0.000439 Fe
0.500000 0.000000 0.000439 Fe
0.000000 0.500000 0.000439 Fe
0.500000 0.500000 0.000439 Fe
0.250000 0.000000 0.750439 Fe
0.750000 0.000000 0.750439 Fe
0.250000 0.500000 0.750439 Fe
0.750000 0.500000 0.750439 Fe
0.250000 0.250000 0.500439 Fe
0.750000 0.250000 0.500439 Fe
0.250000 0.750000 0.500439 Fe
0.750000 0.750000 0.500439 Fe
0.000000 0.250000 0.250439 Fe
0.500000 0.250000 0.250439 Fe
0.000000 0.750000 0.250439 Fe
0.500000 0.750000 0.250439 Fe
