Fe16 Cu16 S32
1.0
10.512687 0.000000 0.247747
0.000000 10.518510 0.000000
0.245272 0.000000 10.407639
S Cu Fe
32 16 16
direct
0.126208 0.122045 0.125462 S
0.626208 0.122045 0.125462 S
0.126208 0.622045 0.125462 S
0.626208 0.622045 0.125462 S
0.373792 0.372045 0.124538 S
0.873792 0.372045 0.124538 S
0.373792 0.872045 0.124538 S
0.873792 0.872045 0.124538 S
0.125000 0.371851 0.875000 S
0.625000 0.371851 0.875000 S
0.125000 0.871851 0.875000 S
0.625000 0.871851 0.875000 S
0.375000 0.124014 0.875000 S
0.875000 0.124014 0.875000 S
0.375000 0.624014 0.875000 S
0.875000 0.624014 0.875000 S
0.123792 0.122045 0.624538 S
0.623792 0.122045 0.624538 S
0.123792 0.622045 0.624538 S
0.623792 0.622045 0.624538 S
0.376208 0.372045 0.625462 S
0.876208 0.372045 0.625462 S
0.376208 0.872045 0.625462 S
0.876208 0.872045 0.625462 S
0.375000 0.121851 0.375000 S
0.875000 0.121851 0.375000 S
0.375000 0.621851 0.375000 S
0.875000 0.621851 0.375000 S
0.125000 0.374014 0.375000 S
0.625000 0.374014 0.375000 S
0.125000 0.874014 0.375000 S
0.625000 0.874014 0.375000 S
-0.000906 0.002574 0.499993 Cu
0.499094 0.002574 0.499993 Cu
-0.000906 0.502574 0.499993 Cu
0.499094 0.502574 0.499993 Cu
0.250906 0.002574 0.250007 Cu
0.750906 0.002574 0.250007 Cu
0.250906 0.502574 0.250007 Cu
0.750906 0.502574 0.250007 Cu
0.249094 0.252575 -0.000006 Cu
0.749094 0.252575 -0.000006 Cu
0.249094 0.752575 -0.000006 Cu
0.749094 0.752575 -0.000006 Cu
0.000906 0.252575 0.750006 Cu
0.500906 0.252575 0.750006 Cu
0.000906 0.752575 0.750006 Cu
0.500906 0.752575 0.750006 Cu
-0.000467 0.002448 0.000133 Fe
0.499533 0.002448 0.000133 Fe
-0.000467 0.502448 0.000133 Fe
0.499533 0.502448 0.000133 Fe
0.250467 0.002448 0.749867 Fe
0.750467 0.002448 0.749867 Fe
0.250467 0.502448 0.749867 Fe
0.750467 0.502448 0.749867 Fe
0.249533 0.252448 0.500133 Fe
0.749533 0.252448 0.500133 Fe
0.249533 0.752448 0.500133 Fe
0.749533 0.752448 0.500133 Fe
0.000467 0.252448 0.249867 Fe
0.500467 0.252448 0.249867 Fe
0.000467 0.752448 0.249867 Fe
0.500467 0.752448 0.249867 Fe
