Fe16 Cu16 S32
1.0
10.515294 0.000000 0.036700
0.000000 10.516413 0.000000
0.036333 0.000000 10.410219
S Cu Fe
32 16 16
direct
0.126167 0.124565 0.125063 S
0.626167 0.124565 0.125063 S
0.126167 0.624565 0.125063 S
0.626167 0.624565 0.125063 S
0.373833 0.374565 0.124937 S
0.873833 0.374565 0.124937 S
0.373833 0.874565 0.124937 S
0.873833 0.874565 0.124937 S
0.125000 0.373549 0.875000 S
0.625000 0.373549 0.875000 S
0.125000 0.873549 0.875000 S
0.625000 0.873549 0.875000 S
0.375000 0.125836 0.875000 S
0.875000 0.125836 0.875000 S
0.375000 0.625836 0.875000 S
0.875000 0.625836 0.875000 S
0.123833 0.124565 0.624937 S
0.623833 0.124565 0.624937 S
0.123833 0.624565 0.624937 S
0.623833 0.624565 0.624937 S
0.376167 0.374565 0.625063 S
0.876167 0.374565 0.625063 S
0.376167 0.874565 0.625063 S
0.876167 0.874565 0.625063 S
0.375000 0.123549 0.375000 S
0.875000 0.123549 0.375000 S
0.375000 0.623549 0.375000 S
0.875000 0.623549 0.375000 S
0.125000 0.375835 0.375000 S
0.625000 0.375835 0.375000 S
0.125000 0.875835 0.375000 S
0.625000 0.875835 0.375000 S
-0.000128 0.000384 0.500001 Cu
0.499872 0.000384 0.500001 Cu
-0.000128 0.500384 0.500001 Cu
0.499872 0.500384 0.500001 Cu
0.250128 0.000384 0.249999 Cu
0.750128 0.000384 0.249999 Cu
0.250128 0.500384 0.249999 Cu
0.750128 0.500384 0.249999 Cu
0.249872 0.250384 0.000001 Cu
0.749872 0.250384 0.000001 Cu
0.249872 0.750384 0.000001 Cu
0.749872 0.750384 0.000001 Cu
0.000128 0.250384 0.749999 Cu
0.500128 0.250384 0.749999 Cu
0.000128 0.750384 0.749999 Cu
0.500128 0.750384 0.749999 Cu
-0.000070 0.000359 0.000025 Fe
0.499930 0.000359 0.000025 Fe
-0.000070 0.500359 0.000025 Fe
0.499930 0.500359 0.000025 Fe
0.250070 0.000359 0.749975 Fe
0.750070 0.000359 0.749975 Fe
0.250070 0.500359 0.749975 Fe
0.750070 0.500359 0.749975 Fe
0.249930 0.250359 0.500025 Fe
0.749930 0.250359 0.500025 Fe
0.249930 0.750359 0.500025 Fe
0.749930 0.750359 0.500025 Fe
0.000070 0.250359 0.249975 Fe
0.500070 0.250359 0.249975 Fe
0.000070 0.750359 0.249975 Fe
0.500070 0.750359 0.249975 Fe
