Fe16 Cu16 S32
1.0
10.506927 0.000000 0.412829
0.000000 10.521905 0.000000
0.408704 0.000000 10.401936
S Cu Fe
32 16 16
direct
0.126301 0.119996 0.125776 S
0.626301 0.119996 0.125776 S
0.126301 0.619996 0.125776 S
0.626301 0.619996 0.125776 S
0.373699 0.369996 0.124224 S
0.873699 0.369996 0.124224 S
0.373699 0.869996 0.124224 S
0.873699 0.869996 0.124224 S
0.125000 0.370739 0.875000 S
0.625000 0.370739 0.875000 S
0.125000 0.870739 0.875000 S
0.625000 0.870739 0.875000 S
0.375000 0.122637 0.875000 S
0.875000 0.122637 0.875000 S
0.375000 0.622637 0.875000 S
0.875000 0.622637 0.875000 S
0.123699 0.119996 0.624224 S
0.623699 0.119996 0.624224 S
0.123699 0.619996 0.624224 S
0.623699 0.619996 0.624224 S
0.376301 0.369996 0.625776 S
0.876301 0.369996 0.625776 S
0.376301 0.869996 0.625776 S
0.876301 0.869996 0.625776 S
0.375000 0.120739 0.375000 S
0.875000 0.120739 0.375000 S
0.375000 0.620739 0.375000 S
0.875000 0.620739 0.375000 S
0.125000 0.372637 0.375000 S
0.625000 0.372637 0.375000 S
0.125000 0.872637 0.375000 S
0.625000 0.872637 0.375000 S
-0.001690 0.004236 0.500011 Cu
0.498310 0.004236 0.500011 Cu
-0.001690 0.504236 0.500011 Cu
0.498310 0.504236 0.500011 Cu
0.251690 0.004236 0.249989 Cu
0.751690 0.004236 0.249989 Cu
0.251690 0.504236 0.249989 Cu
0.751690 0.504236 0.249989 Cu
0.248310 0.254236 0.000011 Cu
0.748310 0.254236 0.000011 Cu
0.248310 0.754236 0.000011 Cu
0.748310 0.754236 0.000011 Cu
0.001690 0.254236 0.749989 Cu
0.501690 0.254236 0.749989 Cu
0.001690 0.754236 0.749989 Cu
0.501690 0.754236 0.749989 Cu
-0.000920 0.004080 0.000395 Fe
0.499080 0.004080 0.000395 Fe
-0.000920 0.504080 0.000395 Fe
0.499080 0.504080 0.000395 Fe
0.250920 0.004080 0.749605 Fe
0.750920 0.004080 0.749605 Fe
0.250920 0.504080 0.749605 Fe
0.750920 0.504080 0.749605 Fe
0.249080 0.254080 0.500395 Fe
0.749080 0.254080 0.500395 Fe
0.249080 0.754080 0.500395 Fe
0.749080 0.754080 0.500395 Fe
0.000920 0.254080 0.249605 Fe
0.500920 0.254080 0.249605 Fe
0.000920 0.754080 0.249605 Fe
0.500920 0.754080 0.249605 Fe
