Fe16 Cu16 S32
1.0
10.508732 0.164974 0.000000
0.164974 10.508732 0.000000
0.000000 0.000000 10.419044
S Cu Fe
32 16 16
direct
0.126134 0.125177 0.123269 S
0.626134 0.125177 0.123269 S
0.126134 0.625177 0.123269 S
0.626134 0.625177 0.123269 S
0.373866 0.374823 0.123269 S
0.873866 0.374823 0.123269 S
0.373866 0.874823 0.123269 S
0.873866 0.874823 0.123269 S
0.124823 0.373866 0.873269 S
0.624823 0.373866 0.873269 S
0.124823 0.873866 0.873269 S
0.624823 0.873866 0.873269 S
0.375177 0.126134 0.873269 S
0.875177 0.126134 0.873269 S
0.375177 0.626134 0.873269 S
0.875177 0.626134 0.873269 S
0.123866 0.124823 0.623269 S
0.623866 0.124823 0.623269 S
0.123866 0.624823 0.623269 S
0.623866 0.624823 0.623269 S
0.376134 0.375177 0.623269 S
0.876134 0.375177 0.623269 S
0.376134 0.875177 0.623269 S
0.876134 0.875177 0.623269 S
0.374823 0.123866 0.373269 S
0.874823 0.123866 0.373269 S
0.374823 0.623866 0.373269 S
0.874823 0.623866 0.373269 S
0.125177 0.376134 0.373269 S
0.625177 0.376134 0.373269 S
0.125177 0.876134 0.373269 S
0.625177 0.876134 0.373269 S
0.000000 0.000000 0.501508 Cu
0.500000 0.000000 0.501508 Cu
0.000000 0.500000 0.501508 Cu
0.500000 0.500000 0.501508 Cu
0.250000 0.000000 0.251508 Cu
0.750000 0.000000 0.251508 Cu
0.250000 0.500000 0.251508 Cu
0.750000 0.500000 0.251508 Cu
0.250000 0.250000 0.001508 Cu
0.750000 0.250000 0.001508 Cu
0.250000 0.750000 0.001508 Cu
0.750000 0.750000 0.001508 Cu
0.000000 0.250000 0.751508 Cu
0.500000 0.250000 0.751508 Cu
0.000000 0.750000 0.751508 Cu
0.500000 0.750000 0.751508 Cu
0.000000 0.000000 0.001955 Fe
0.500000 0.000000 0.001955 Fe
0.000000 0.500000 0.001955 Fe
0.500000 0.500000 0.001955 Fe
0.250000 0.000000 0.751955 Fe
0.750000 0.000000 0.751955 Fe
0.250000 0.500000 0.751955 Fe
0.750000 0.500000 0.751955 Fe
0.250000 0.250000 0.501955 Fe
0.750000 0.250000 0.501955 Fe
0.250000 0.750000 0.501955 Fe
0.750000 0.750000 0.501955 Fe
0.000000 0.250000 0.251955 Fe
0.500000 0.250000 0.251955 Fe
0.000000 0.750000 0.251955 Fe
0.500000 0.750000 0.251955 Fe
