Fe16 Cu16 S32                           
   1.00000000000000     
    10.4979279999999999    0.4124360000000000    0.0000000000000000
     0.4124360000000000   10.4979279999999999    0.0000000000000000
     0.0000000000000000    0.0000000000000000   10.4320730000000008
   S    Cu   Fe
    32    16    16
Direct
  0.1261089999999996  0.1254569999999973  0.1206490000000002
  0.6261089999999996  0.1254569999999973  0.1206490000000002
  0.1261089999999996  0.6254569999999973  0.1206490000000002
  0.6261089999999996  0.6254569999999973  0.1206490000000002
  0.3738910000000004  0.3745430000000027  0.1206490000000002
  0.8738910000000004  0.3745430000000027  0.1206490000000002
  0.3738910000000004  0.8745430000000027  0.1206490000000002
  0.8738910000000004  0.8745430000000027  0.1206490000000002
  0.1245430000000027  0.3738910000000004  0.8706490000000002
  0.6245430000000027  0.3738910000000004  0.8706490000000002
  0.1245430000000027  0.8738910000000004  0.8706490000000002
  0.6245430000000027  0.8738910000000004  0.8706490000000002
  0.3754569999999973  0.1261089999999996  0.8706490000000002
  0.8754569999999973  0.1261089999999996  0.8706490000000002
  0.3754569999999973  0.6261089999999996  0.8706490000000002
  0.8754569999999973  0.6261089999999996  0.8706490000000002
  0.1238910000000004  0.1245430000000027  0.6206490000000002
  0.6238910000000004  0.1245430000000027  0.6206490000000002
  0.1238910000000004  0.6245430000000027  0.6206490000000002
  0.6238910000000004  0.6245430000000027  0.6206490000000002
  0.3761089999999996  0.3754569999999973  0.6206490000000002
  0.8761089999999996  0.3754569999999973  0.6206490000000002
  0.3761089999999996  0.8754569999999973  0.6206490000000002
  0.8761089999999996  0.8754569999999973  0.6206490000000002
  0.3745430000000027  0.1238910000000004  0.3706490000000002
  0.8745430000000027  0.1238910000000004  0.3706490000000002
  0.3745430000000027  0.6238910000000004  0.3706490000000002
  0.8745430000000027  0.6238910000000004  0.3706490000000002
  0.1254569999999973  0.3761089999999996  0.3706490000000002
  0.6254569999999973  0.3761089999999996  0.3706490000000002
  0.1254569999999973  0.8761089999999996  0.3706490000000002
  0.6254569999999973  0.8761089999999996  0.3706490000000002
  0.0000000000000000  0.0000000000000000  0.5037749999999974
  0.5000000000000000  0.0000000000000000  0.5037749999999974
  0.0000000000000000  0.5000000000000000  0.5037749999999974
  0.5000000000000000  0.5000000000000000  0.5037749999999974
  0.2500000000000000  0.0000000000000000  0.2537749999999974
  0.7500000000000000  0.0000000000000000  0.2537749999999974
  0.2500000000000000  0.5000000000000000  0.2537749999999974
  0.7500000000000000  0.5000000000000000  0.2537749999999974
  0.2500000000000000  0.2500000000000000  0.0037749999999974
  0.7500000000000000  0.2500000000000000  0.0037749999999974
  0.2500000000000000  0.7500000000000000  0.0037749999999974
  0.7500000000000000  0.7500000000000000  0.0037749999999974
  0.0000000000000000  0.2500000000000000  0.7537749999999974
  0.5000000000000000  0.2500000000000000  0.7537749999999974
  0.0000000000000000  0.7500000000000000  0.7537749999999974
  0.5000000000000000  0.7500000000000000  0.7537749999999974
  0.0000000000000000  0.0000000000000000  0.0049279999999996
  0.5000000000000000  0.0000000000000000  0.0049279999999996
  0.0000000000000000  0.5000000000000000  0.0049279999999996
  0.5000000000000000  0.5000000000000000  0.0049279999999996
  0.2500000000000000  0.0000000000000000  0.7549279999999996
  0.7500000000000000  0.0000000000000000  0.7549279999999996
  0.2500000000000000  0.5000000000000000  0.7549279999999996
  0.7500000000000000  0.5000000000000000  0.7549279999999996
  0.2500000000000000  0.2500000000000000  0.5049279999999996
  0.7500000000000000  0.2500000000000000  0.5049279999999996
  0.2500000000000000  0.7500000000000000  0.5049279999999996
  0.7500000000000000  0.7500000000000000  0.5049279999999996
  0.0000000000000000  0.2500000000000000  0.2549279999999996
  0.5000000000000000  0.2500000000000000  0.2549279999999996
  0.0000000000000000  0.7500000000000000  0.2549279999999996
  0.5000000000000000  0.7500000000000000  0.2549279999999996
 
  0.00000000E+00  0.00000000E+00  0.00000000E+00
  0.00000000E+00  0.00000000E+00  0.00000000E+00
  0.00000000E+00  0.00000000E+00  0.00000000E+00
  0.00000000E+00  0.00000000E+00  0.00000000E+00
  0.00000000E+00  0.00000000E+00  0.00000000E+00
  0.00000000E+00  0.00000000E+00  0.00000000E+00
  0.00000000E+00  0.00000000E+00  0.00000000E+00
  0.00000000E+00  0.00000000E+00  0.00000000E+00
  0.00000000E+00  0.00000000E+00  0.00000000E+00
  0.00000000E+00  0.00000000E+00  0.00000000E+00
  0.00000000E+00  0.00000000E+00  0.00000000E+00
  0.00000000E+00  0.00000000E+00  0.00000000E+00
  0.00000000E+00  0.00000000E+00  0.00000000E+00
  0.00000000E+00  0.00000000E+00  0.00000000E+00
  0.00000000E+00  0.00000000E+00  0.00000000E+00
  0.00000000E+00  0.00000000E+00  0.00000000E+00
  0.00000000E+00  0.00000000E+00  0.00000000E+00
  0.00000000E+00  0.00000000E+00  0.00000000E+00
  0.00000000E+00  0.00000000E+00  0.00000000E+00
  0.00000000E+00  0.00000000E+00  0.00000000E+00
  0.00000000E+00  0.00000000E+00  0.00000000E+00
  0.00000000E+00  0.00000000E+00  0.00000000E+00
  0.00000000E+00  0.00000000E+00  0.00000000E+00
  0.00000000E+00  0.00000000E+00  0.00000000E+00
  0.00000000E+00  0.00000000E+00  0.00000000E+00
  0.00000000E+00  0.00000000E+00  0.00000000E+00
  0.00000000E+00  0.00000000E+00  0.00000000E+00
  0.00000000E+00  0.00000000E+00  0.00000000E+00
  0.00000000E+00  0.00000000E+00  0.00000000E+00
  0.00000000E+00  0.00000000E+00  0.00000000E+00
  0.00000000E+00  0.00000000E+00  0.00000000E+00
  0.00000000E+00  0.00000000E+00  0.00000000E+00
  0.00000000E+00  0.00000000E+00  0.00000000E+00
  0.00000000E+00  0.00000000E+00  0.00000000E+00
  0.00000000E+00  0.00000000E+00  0.00000000E+00
  0.00000000E+00  0.00000000E+00  0.00000000E+00
  0.00000000E+00  0.00000000E+00  0.00000000E+00
  0.00000000E+00  0.00000000E+00  0.00000000E+00
  0.00000000E+00  0.00000000E+00  0.00000000E+00
  0.00000000E+00  0.00000000E+00  0.00000000E+00
  0.00000000E+00  0.00000000E+00  0.00000000E+00
  0.00000000E+00  0.00000000E+00  0.00000000E+00
  0.00000000E+00  0.00000000E+00  0.00000000E+00
  0.00000000E+00  0.00000000E+00  0.00000000E+00
  0.00000000E+00  0.00000000E+00  0.00000000E+00
  0.00000000E+00  0.00000000E+00  0.00000000E+00
  0.00000000E+00  0.00000000E+00  0.00000000E+00
  0.00000000E+00  0.00000000E+00  0.00000000E+00
  0.00000000E+00  0.00000000E+00  0.00000000E+00
  0.00000000E+00  0.00000000E+00  0.00000000E+00
  0.00000000E+00  0.00000000E+00  0.00000000E+00
  0.00000000E+00  0.00000000E+00  0.00000000E+00
  0.00000000E+00  0.00000000E+00  0.00000000E+00
  0.00000000E+00  0.00000000E+00  0.00000000E+00
  0.00000000E+00  0.00000000E+00  0.00000000E+00
  0.00000000E+00  0.00000000E+00  0.00000000E+00
  0.00000000E+00  0.00000000E+00  0.00000000E+00
  0.00000000E+00  0.00000000E+00  0.00000000E+00
  0.00000000E+00  0.00000000E+00  0.00000000E+00
  0.00000000E+00  0.00000000E+00  0.00000000E+00
  0.00000000E+00  0.00000000E+00  0.00000000E+00
  0.00000000E+00  0.00000000E+00  0.00000000E+00
  0.00000000E+00  0.00000000E+00  0.00000000E+00
  0.00000000E+00  0.00000000E+00  0.00000000E+00
