Fe16 Cu16 S32
1.0
10.512734 0.073322 0.000000
0.073322 10.512734 0.000000
0.000000 0.000000 10.414227
S Cu Fe
32 16 16
direct
0.126143 0.125080 0.124241 S
0.626143 0.125080 0.124241 S
0.126143 0.625080 0.124241 S
0.626143 0.625080 0.124241 S
0.373857 0.374920 0.124241 S
0.873857 0.374920 0.124241 S
0.373857 0.874920 0.124241 S
0.873857 0.874920 0.124241 S
0.124920 0.373857 0.874241 S
0.624920 0.373857 0.874241 S
0.124920 0.873857 0.874241 S
0.624920 0.873857 0.874241 S
0.375080 0.126143 0.874241 S
0.875080 0.126143 0.874241 S
0.375080 0.626143 0.874241 S
0.875080 0.626143 0.874241 S
0.123857 0.124920 0.624241 S
0.623857 0.124920 0.624241 S
0.123857 0.624920 0.624241 S
0.623857 0.624920 0.624241 S
0.376143 0.375080 0.624241 S
0.876143 0.375080 0.624241 S
0.376143 0.875080 0.624241 S
0.876143 0.875080 0.624241 S
0.374920 0.123857 0.374241 S
0.874920 0.123857 0.374241 S
0.374920 0.623857 0.374241 S
0.874920 0.623857 0.374241 S
0.125080 0.376143 0.374241 S
0.625080 0.376143 0.374241 S
0.125080 0.876143 0.374241 S
0.625080 0.876143 0.374241 S
0.000000 0.000000 0.500656 Cu
0.500000 0.000000 0.500656 Cu
0.000000 0.500000 0.500656 Cu
0.500000 0.500000 0.500656 Cu
0.250000 0.000000 0.250656 Cu
0.750000 0.000000 0.250656 Cu
0.250000 0.500000 0.250656 Cu
0.750000 0.500000 0.250656 Cu
0.250000 0.250000 0.000656 Cu
0.750000 0.250000 0.000656 Cu
0.250000 0.750000 0.000656 Cu
0.750000 0.750000 0.000656 Cu
0.000000 0.250000 0.750656 Cu
0.500000 0.250000 0.750656 Cu
0.000000 0.750000 0.750656 Cu
0.500000 0.750000 0.750656 Cu
0.000000 0.000000 0.000863 Fe
0.500000 0.000000 0.000863 Fe
0.000000 0.500000 0.000863 Fe
0.500000 0.500000 0.000863 Fe
0.250000 0.000000 0.750863 Fe
0.750000 0.000000 0.750863 Fe
0.250000 0.500000 0.750863 Fe
0.750000 0.500000 0.750863 Fe
0.250000 0.250000 0.500863 Fe
0.750000 0.250000 0.500863 Fe
0.250000 0.750000 0.500863 Fe
0.750000 0.750000 0.500863 Fe
0.000000 0.250000 0.250863 Fe
0.500000 0.250000 0.250863 Fe
0.000000 0.750000 0.250863 Fe
0.500000 0.750000 0.250863 Fe
