Fe4 Cu4 S8                              
   1.00000000000000     
     5.2547829999999998    0.0000000000000000    0.0916670000000000
     0.0000000000000000    5.2639338435428495    0.0000000000000000
     0.1814290000000000    0.0000000000000000   10.4004130000000004
   S    Cu   Fe
     8     4     4
Direct
  0.2524495337685480  0.2456245490631019  0.1253806872194332
  0.7475504662314520  0.7456245490630948  0.1246193127805668
  0.2500000000000000  0.7446290148189050  0.8750000000000000
  0.7500000000000000  0.2492808137674558  0.8750000000000000
  0.2475504662314520  0.2456245490631019  0.6246193127805668
  0.7524495337685480  0.7456245490630948  0.6253806872194332
  0.7500000000000000  0.2446290148189121  0.3750000000000000
  0.2500000000000000  0.7492808137674558  0.3750000000000000
  0.9985999052126928  0.0037538308127338  0.5000044539062856
  0.5014000947873072  0.0037538308127338  0.2499955460937144
  0.4985999052126928  0.5037538308127338  0.0000044539062856
  0.0014000947873072  0.5037538308127338  0.7499955460937144
  0.9993293448467639  0.0036667058309803  0.0000685785286763
  0.5006706551532361  0.0036667058309803  0.7499314214713237
  0.4993293448467639  0.5036667058309732  0.5000685785286763
  0.0006706551532361  0.5036667058309732  0.2499314214713237
 
  0.00000000E+00  0.00000000E+00  0.00000000E+00
  0.00000000E+00  0.00000000E+00  0.00000000E+00
  0.00000000E+00  0.00000000E+00  0.00000000E+00
  0.00000000E+00  0.00000000E+00  0.00000000E+00
  0.00000000E+00  0.00000000E+00  0.00000000E+00
  0.00000000E+00  0.00000000E+00  0.00000000E+00
  0.00000000E+00  0.00000000E+00  0.00000000E+00
  0.00000000E+00  0.00000000E+00  0.00000000E+00
  0.00000000E+00  0.00000000E+00  0.00000000E+00
  0.00000000E+00  0.00000000E+00  0.00000000E+00
  0.00000000E+00  0.00000000E+00  0.00000000E+00
  0.00000000E+00  0.00000000E+00  0.00000000E+00
  0.00000000E+00  0.00000000E+00  0.00000000E+00
  0.00000000E+00  0.00000000E+00  0.00000000E+00
  0.00000000E+00  0.00000000E+00  0.00000000E+00
  0.00000000E+00  0.00000000E+00  0.00000000E+00
