sm_isp_SD0310437-standardized_unitcell  
   1.00000000000000     
     5.5217249382961358    0.0000000000000000    0.0000000000000000
     0.0000000000000000    4.9022957333365627    0.0000000000000000
     0.0000000000000000    0.0000000000000000   10.9287514815221396
   S    Cu   Fe
     8     4     4
Direct
  0.2518709294414663  0.2500000000000000  0.1250000000000000
  0.7481291005585291  0.7500000000000000  0.1250000000000000
  0.2500000000000000  0.7480387981785626  0.8750000000000000
  0.7500000000000000  0.2519612318214257  0.8750000000000000
  0.2481290705585266  0.2500000000000000  0.6250000000000000
  0.7518708994414709  0.7500000000000000  0.6250000000000000
  0.7500000000000000  0.2480387681785601  0.3750000000000000
  0.2500000000000000  0.7519612018214374  0.3750000000000000
  0.0000000000000000  0.0000000000000000  0.4995413232219477
  0.5000000000000000  0.0000000000000000  0.2504586767780523
  0.5000000000000000  0.5000000000000000  0.9995413232219477
  0.0000000000000000  0.5000000000000000  0.7504586767780523
  0.0000000000000000  0.0000000000000000  0.9997432809632514
  0.5000000000000000  0.0000000000000000  0.7502567190367486
  0.5000000000000000  0.5000000000000000  0.4997432809632443
  0.0000000000000000  0.5000000000000000  0.2502567190367557
 
  0.00000000E+00  0.00000000E+00  0.00000000E+00
  0.00000000E+00  0.00000000E+00  0.00000000E+00
  0.00000000E+00  0.00000000E+00  0.00000000E+00
  0.00000000E+00  0.00000000E+00  0.00000000E+00
  0.00000000E+00  0.00000000E+00  0.00000000E+00
  0.00000000E+00  0.00000000E+00  0.00000000E+00
  0.00000000E+00  0.00000000E+00  0.00000000E+00
  0.00000000E+00  0.00000000E+00  0.00000000E+00
  0.00000000E+00  0.00000000E+00  0.00000000E+00
  0.00000000E+00  0.00000000E+00  0.00000000E+00
  0.00000000E+00  0.00000000E+00  0.00000000E+00
  0.00000000E+00  0.00000000E+00  0.00000000E+00
  0.00000000E+00  0.00000000E+00  0.00000000E+00
  0.00000000E+00  0.00000000E+00  0.00000000E+00
  0.00000000E+00  0.00000000E+00  0.00000000E+00
  0.00000000E+00  0.00000000E+00  0.00000000E+00
