Fe16 Cu16 S32
1.0
10.496727 0.439931 0.000000
0.439931 10.496727 0.000000
0.000000 0.000000 10.431091
S Cu Fe
32 16 16
direct
0.126074 0.125479 0.120443 S
0.626074 0.125479 0.120443 S
0.126074 0.625479 0.120443 S
0.626074 0.625479 0.120443 S
0.373926 0.374521 0.120443 S
0.873926 0.374521 0.120443 S
0.373926 0.874521 0.120443 S
0.873926 0.874521 0.120443 S
0.124521 0.373926 0.870443 S
0.624521 0.373926 0.870443 S
0.124521 0.873926 0.870443 S
0.624521 0.873926 0.870443 S
0.375479 0.126074 0.870443 S
0.875479 0.126074 0.870443 S
0.375479 0.626074 0.870443 S
0.875479 0.626074 0.870443 S
0.123926 0.124521 0.620443 S
0.623926 0.124521 0.620443 S
0.123926 0.624521 0.620443 S
0.623926 0.624521 0.620443 S
0.376074 0.375479 0.620443 S
0.876074 0.375479 0.620443 S
0.376074 0.875479 0.620443 S
0.876074 0.875479 0.620443 S
0.374521 0.123926 0.370443 S
0.874521 0.123926 0.370443 S
0.374521 0.623926 0.370443 S
0.874521 0.623926 0.370443 S
0.125479 0.376074 0.370443 S
0.625479 0.376074 0.370443 S
0.125479 0.876074 0.370443 S
0.625479 0.876074 0.370443 S
0.000000 0.000000 0.503934 Cu
0.500000 0.000000 0.503934 Cu
0.000000 0.500000 0.503934 Cu
0.500000 0.500000 0.503934 Cu
0.250000 0.000000 0.253934 Cu
0.750000 0.000000 0.253934 Cu
0.250000 0.500000 0.253934 Cu
0.750000 0.500000 0.253934 Cu
0.250000 0.250000 0.003934 Cu
0.750000 0.250000 0.003934 Cu
0.250000 0.750000 0.003934 Cu
0.750000 0.750000 0.003934 Cu
0.000000 0.250000 0.753934 Cu
0.500000 0.250000 0.753934 Cu
0.000000 0.750000 0.753934 Cu
0.500000 0.750000 0.753934 Cu
0.000000 0.000000 0.005179 Fe
0.500000 0.000000 0.005179 Fe
0.000000 0.500000 0.005179 Fe
0.500000 0.500000 0.005179 Fe
0.250000 0.000000 0.755179 Fe
0.750000 0.000000 0.755179 Fe
0.250000 0.500000 0.755179 Fe
0.750000 0.500000 0.755179 Fe
0.250000 0.250000 0.505179 Fe
0.750000 0.250000 0.505179 Fe
0.250000 0.750000 0.505179 Fe
0.750000 0.750000 0.505179 Fe
0.000000 0.250000 0.255179 Fe
0.500000 0.250000 0.255179 Fe
0.000000 0.750000 0.255179 Fe
0.500000 0.750000 0.255179 Fe
