Fe16 Cu16 S32
1.0
10.503930 0.274957 0.000000
0.274957 10.503930 0.000000
0.000000 0.000000 10.422876
S Cu Fe
32 16 16
direct
0.126104 0.125271 0.122189 S
0.626104 0.125271 0.122189 S
0.126104 0.625271 0.122189 S
0.626104 0.625271 0.122189 S
0.373896 0.374729 0.122189 S
0.873896 0.374729 0.122189 S
0.373896 0.874729 0.122189 S
0.873896 0.874729 0.122189 S
0.124729 0.373896 0.872189 S
0.624729 0.373896 0.872189 S
0.124729 0.873896 0.872189 S
0.624729 0.873896 0.872189 S
0.375271 0.126104 0.872189 S
0.875271 0.126104 0.872189 S
0.375271 0.626104 0.872189 S
0.875271 0.626104 0.872189 S
0.123896 0.124729 0.622189 S
0.623896 0.124729 0.622189 S
0.123896 0.624729 0.622189 S
0.623896 0.624729 0.622189 S
0.376104 0.375271 0.622189 S
0.876104 0.375271 0.622189 S
0.376104 0.875271 0.622189 S
0.876104 0.875271 0.622189 S
0.374729 0.123896 0.372189 S
0.874729 0.123896 0.372189 S
0.374729 0.623896 0.372189 S
0.874729 0.623896 0.372189 S
0.125271 0.376104 0.372189 S
0.625271 0.376104 0.372189 S
0.125271 0.876104 0.372189 S
0.625271 0.876104 0.372189 S
0.000000 0.000000 0.502460 Cu
0.500000 0.000000 0.502460 Cu
0.000000 0.500000 0.502460 Cu
0.500000 0.500000 0.502460 Cu
0.250000 0.000000 0.252460 Cu
0.750000 0.000000 0.252460 Cu
0.250000 0.500000 0.252460 Cu
0.750000 0.500000 0.252460 Cu
0.250000 0.250000 0.002460 Cu
0.750000 0.250000 0.002460 Cu
0.250000 0.750000 0.002460 Cu
0.750000 0.750000 0.002460 Cu
0.000000 0.250000 0.752460 Cu
0.500000 0.250000 0.752460 Cu
0.000000 0.750000 0.752460 Cu
0.500000 0.750000 0.752460 Cu
0.000000 0.000000 0.003163 Fe
0.500000 0.000000 0.003163 Fe
0.000000 0.500000 0.003163 Fe
0.500000 0.500000 0.003163 Fe
0.250000 0.000000 0.753163 Fe
0.750000 0.000000 0.753163 Fe
0.250000 0.500000 0.753163 Fe
0.750000 0.500000 0.753163 Fe
0.250000 0.250000 0.503163 Fe
0.750000 0.250000 0.503163 Fe
0.250000 0.750000 0.503163 Fe
0.750000 0.750000 0.503163 Fe
0.000000 0.250000 0.253163 Fe
0.500000 0.250000 0.253163 Fe
0.000000 0.750000 0.253163 Fe
0.500000 0.750000 0.253163 Fe
