Fe4 Cu4 S8                              
   1.00000000000000     
     5.2407760000000003    0.0000000000000000    0.4125000000000000
     0.0000000000000000    5.2766005883985843    0.0000000000000000
     0.8164320000000000    0.0000000000000000   10.3726889999999994
   S    Cu   Fe
     8     4     4
Direct
  0.2537824141718943  0.2294496602013822  0.1266230700503925
  0.7462175858281128  0.7294496602013751  0.1233769299496075
  0.2500000000000000  0.7371369435615520  0.8750000000000000
  0.7500000000000000  0.2391319044701419  0.8750000000000000
  0.2462175858281128  0.2294496602013822  0.6233769299496146
  0.7537824141718872  0.7294496602013751  0.6266230700503854
  0.7500000000000000  0.2371369435615449  0.3750000000000000
  0.2500000000000000  0.7391319044701348  0.3750000000000000
  0.9913313607518646  0.0160928910017617  0.5000756279244456
  0.5086686392481425  0.0160928910017617  0.2499243720755544
  0.4913313607518646  0.5160928910017617  0.0000756279244456
  0.0086686392481354  0.5160928910017617  0.7499243720755544
  0.9948867305298990  0.0163230247810020  0.0017569059936875
  0.5051132694701010  0.0163230247810020  0.7482430940063125
  0.4948867305298990  0.5163230247810162  0.5017569059936875
  0.0051132694701010  0.5163230247810162  0.2482430940063196
 
  0.00000000E+00  0.00000000E+00  0.00000000E+00
  0.00000000E+00  0.00000000E+00  0.00000000E+00
  0.00000000E+00  0.00000000E+00  0.00000000E+00
  0.00000000E+00  0.00000000E+00  0.00000000E+00
  0.00000000E+00  0.00000000E+00  0.00000000E+00
  0.00000000E+00  0.00000000E+00  0.00000000E+00
  0.00000000E+00  0.00000000E+00  0.00000000E+00
  0.00000000E+00  0.00000000E+00  0.00000000E+00
  0.00000000E+00  0.00000000E+00  0.00000000E+00
  0.00000000E+00  0.00000000E+00  0.00000000E+00
  0.00000000E+00  0.00000000E+00  0.00000000E+00
  0.00000000E+00  0.00000000E+00  0.00000000E+00
  0.00000000E+00  0.00000000E+00  0.00000000E+00
  0.00000000E+00  0.00000000E+00  0.00000000E+00
  0.00000000E+00  0.00000000E+00  0.00000000E+00
  0.00000000E+00  0.00000000E+00  0.00000000E+00
