Fe16 Cu16 S32
1.0
10.514334 0.036661 0.000000
0.036661 10.514334 0.000000
0.000000 0.000000 10.412990
S Cu Fe
32 16 16
direct
0.126158 0.125041 0.124609 S
0.626158 0.125041 0.124609 S
0.126158 0.625041 0.124609 S
0.626158 0.625041 0.124609 S
0.373842 0.374959 0.124609 S
0.873842 0.374959 0.124609 S
0.373842 0.874959 0.124609 S
0.873842 0.874959 0.124609 S
0.124959 0.373842 0.874609 S
0.624959 0.373842 0.874609 S
0.124959 0.873842 0.874609 S
0.624959 0.873842 0.874609 S
0.375041 0.126158 0.874609 S
0.875041 0.126158 0.874609 S
0.375041 0.626158 0.874609 S
0.875041 0.626158 0.874609 S
0.123842 0.124959 0.624609 S
0.623842 0.124959 0.624609 S
0.123842 0.624959 0.624609 S
0.623842 0.624959 0.624609 S
0.376158 0.375041 0.624609 S
0.876158 0.375041 0.624609 S
0.376158 0.875041 0.624609 S
0.876158 0.875041 0.624609 S
0.374959 0.123842 0.374609 S
0.874959 0.123842 0.374609 S
0.374959 0.623842 0.374609 S
0.874959 0.623842 0.374609 S
0.125041 0.376158 0.374609 S
0.625041 0.376158 0.374609 S
0.125041 0.876158 0.374609 S
0.625041 0.876158 0.374609 S
0.000000 0.000000 0.500338 Cu
0.500000 0.000000 0.500338 Cu
0.000000 0.500000 0.500338 Cu
0.500000 0.500000 0.500338 Cu
0.250000 0.000000 0.250338 Cu
0.750000 0.000000 0.250338 Cu
0.250000 0.500000 0.250338 Cu
0.750000 0.500000 0.250338 Cu
0.250000 0.250000 0.000338 Cu
0.750000 0.250000 0.000338 Cu
0.250000 0.750000 0.000338 Cu
0.750000 0.750000 0.000338 Cu
0.000000 0.250000 0.750338 Cu
0.500000 0.250000 0.750338 Cu
0.000000 0.750000 0.750338 Cu
0.500000 0.750000 0.750338 Cu
0.000000 0.000000 0.000444 Fe
0.500000 0.000000 0.000444 Fe
0.000000 0.500000 0.000444 Fe
0.500000 0.500000 0.000444 Fe
0.250000 0.000000 0.750444 Fe
0.750000 0.000000 0.750444 Fe
0.250000 0.500000 0.750444 Fe
0.750000 0.500000 0.750444 Fe
0.250000 0.250000 0.500444 Fe
0.750000 0.250000 0.500444 Fe
0.250000 0.750000 0.500444 Fe
0.750000 0.750000 0.500444 Fe
0.000000 0.250000 0.250444 Fe
0.500000 0.250000 0.250444 Fe
0.000000 0.750000 0.250444 Fe
0.500000 0.750000 0.250444 Fe
