sm_isp_SD0310437-standardized_unitcell  
   1.00000000000000     
     5.2587856555201293    0.0000000000000000    0.0000000000000000
     0.0000000000000000    5.2587856555201293    0.0000000000000000
     0.0000000000000000    0.0000000000000000   10.4083347443067993
   S    Cu   Fe
     8     4     4
Direct
  0.2523909932705237  0.2500000000000000  0.1250000000000000
  0.7476090367294717  0.7500000000000000  0.1250000000000000
  0.2500000000000000  0.7476090367294717  0.8750000000000000
  0.7500000000000000  0.2523909932705237  0.8750000000000000
  0.2476090067294692  0.2500000000000000  0.6250000000000000
  0.7523909632705283  0.7500000000000000  0.6250000000000000
  0.7500000000000000  0.2476090067294692  0.3750000000000000
  0.2500000000000000  0.7523909632705283  0.3750000000000000
  0.0000000000000000  0.0000000000000000  0.5000000000000000
  0.5000000000000000  0.0000000000000000  0.2500000000000000
  0.5000000000000000  0.5000000000000000  0.0000000000000000
  0.0000000000000000  0.5000000000000000  0.7500000000000000
  0.0000000000000000  0.0000000000000000  0.0000000000000000
  0.5000000000000000  0.0000000000000000  0.7500000000000000
  0.5000000000000000  0.5000000000000000  0.5000000000000000
  0.0000000000000000  0.5000000000000000  0.2500000000000000
 
  0.00000000E+00  0.00000000E+00  0.00000000E+00
  0.00000000E+00  0.00000000E+00  0.00000000E+00
  0.00000000E+00  0.00000000E+00  0.00000000E+00
  0.00000000E+00  0.00000000E+00  0.00000000E+00
  0.00000000E+00  0.00000000E+00  0.00000000E+00
  0.00000000E+00  0.00000000E+00  0.00000000E+00
  0.00000000E+00  0.00000000E+00  0.00000000E+00
  0.00000000E+00  0.00000000E+00  0.00000000E+00
  0.00000000E+00  0.00000000E+00  0.00000000E+00
  0.00000000E+00  0.00000000E+00  0.00000000E+00
  0.00000000E+00  0.00000000E+00  0.00000000E+00
  0.00000000E+00  0.00000000E+00  0.00000000E+00
  0.00000000E+00  0.00000000E+00  0.00000000E+00
  0.00000000E+00  0.00000000E+00  0.00000000E+00
  0.00000000E+00  0.00000000E+00  0.00000000E+00
  0.00000000E+00  0.00000000E+00  0.00000000E+00
