sm_isp_SD0310437-standardized_unitcell  
   1.00000000000000     
     5.2061977989649284    0.0000000000000000    0.0000000000000000
     0.0000000000000000    5.2061977989649284    0.0000000000000000
     0.0000000000000000    0.0000000000000000   10.5612851324601689
   S    Cu   Fe
     8     4     4
Direct
  0.2526296110998487  0.2500000000000000  0.1250000000000000
  0.7473704189001467  0.7500000000000000  0.1250000000000000
  0.2500000000000000  0.7473704189001467  0.8750000000000000
  0.7500000000000000  0.2526296110998487  0.8750000000000000
  0.2473703889001442  0.2500000000000000  0.6250000000000000
  0.7526295810998533  0.7500000000000000  0.6250000000000000
  0.7500000000000000  0.2473703889001442  0.3750000000000000
  0.2500000000000000  0.7526295810998533  0.3750000000000000
  0.0000000000000000  0.0000000000000000  0.5000000000000000
  0.5000000000000000  0.0000000000000000  0.2500000000000000
  0.5000000000000000  0.5000000000000000  0.0000000000000000
  0.0000000000000000  0.5000000000000000  0.7500000000000000
  0.0000000000000000  0.0000000000000000  0.0000000000000000
  0.5000000000000000  0.0000000000000000  0.7500000000000000
  0.5000000000000000  0.5000000000000000  0.5000000000000000
  0.0000000000000000  0.5000000000000000  0.2500000000000000
 
  0.00000000E+00  0.00000000E+00  0.00000000E+00
  0.00000000E+00  0.00000000E+00  0.00000000E+00
  0.00000000E+00  0.00000000E+00  0.00000000E+00
  0.00000000E+00  0.00000000E+00  0.00000000E+00
  0.00000000E+00  0.00000000E+00  0.00000000E+00
  0.00000000E+00  0.00000000E+00  0.00000000E+00
  0.00000000E+00  0.00000000E+00  0.00000000E+00
  0.00000000E+00  0.00000000E+00  0.00000000E+00
  0.00000000E+00  0.00000000E+00  0.00000000E+00
  0.00000000E+00  0.00000000E+00  0.00000000E+00
  0.00000000E+00  0.00000000E+00  0.00000000E+00
  0.00000000E+00  0.00000000E+00  0.00000000E+00
  0.00000000E+00  0.00000000E+00  0.00000000E+00
  0.00000000E+00  0.00000000E+00  0.00000000E+00
  0.00000000E+00  0.00000000E+00  0.00000000E+00
  0.00000000E+00  0.00000000E+00  0.00000000E+00
