sm_isp_SD0310437-standardized_unitcell  
   1.00000000000000     
     5.4165492251857330    0.0000000000000000    0.0000000000000000
     0.0000000000000000    5.4165492251857330    0.0000000000000000
     0.0000000000000000    0.0000000000000000    9.9605851560594871
   S    Cu   Fe
     8     4     4
Direct
  0.2515651653727815  0.2500000000000000  0.1250000000000000
  0.7484348646272139  0.7500000000000000  0.1250000000000000
  0.2500000000000000  0.7484348646272139  0.8750000000000000
  0.7500000000000000  0.2515651653727815  0.8750000000000000
  0.2484348346272114  0.2500000000000000  0.6250000000000000
  0.7515651353727861  0.7500000000000000  0.6250000000000000
  0.7500000000000000  0.2484348346272114  0.3750000000000000
  0.2500000000000000  0.7515651353727861  0.3750000000000000
  0.0000000000000000  0.0000000000000000  0.5000000000000000
  0.5000000000000000  0.0000000000000000  0.2500000000000000
  0.5000000000000000  0.5000000000000000  0.0000000000000000
  0.0000000000000000  0.5000000000000000  0.7500000000000000
  0.0000000000000000  0.0000000000000000  0.0000000000000000
  0.5000000000000000  0.0000000000000000  0.7500000000000000
  0.5000000000000000  0.5000000000000000  0.5000000000000000
  0.0000000000000000  0.5000000000000000  0.2500000000000000
 
  0.00000000E+00  0.00000000E+00  0.00000000E+00
  0.00000000E+00  0.00000000E+00  0.00000000E+00
  0.00000000E+00  0.00000000E+00  0.00000000E+00
  0.00000000E+00  0.00000000E+00  0.00000000E+00
  0.00000000E+00  0.00000000E+00  0.00000000E+00
  0.00000000E+00  0.00000000E+00  0.00000000E+00
  0.00000000E+00  0.00000000E+00  0.00000000E+00
  0.00000000E+00  0.00000000E+00  0.00000000E+00
  0.00000000E+00  0.00000000E+00  0.00000000E+00
  0.00000000E+00  0.00000000E+00  0.00000000E+00
  0.00000000E+00  0.00000000E+00  0.00000000E+00
  0.00000000E+00  0.00000000E+00  0.00000000E+00
  0.00000000E+00  0.00000000E+00  0.00000000E+00
  0.00000000E+00  0.00000000E+00  0.00000000E+00
  0.00000000E+00  0.00000000E+00  0.00000000E+00
  0.00000000E+00  0.00000000E+00  0.00000000E+00
