Fe4 Cu4 S8                              
   1.00000000000000     
     5.2527819999999998    0.0000000000000000    0.1375000000000000
     0.0000000000000000    5.2661726643211413    0.0000000000000000
     0.2721440000000000    0.0000000000000000   10.3964529999999993
   S    Cu   Fe
     8     4     4
Direct
  0.2525253822354472  0.2433951833419670  0.1255670747885631
  0.7474746177645457  0.7433951833419670  0.1244329252114369
  0.2500000000000000  0.7432367579745645  0.8750000000000000
  0.7500000000000000  0.2477171605952577  0.8750000000000000
  0.2474746177645528  0.2433951833419670  0.6244329252114369
  0.7525253822354543  0.7433951833419670  0.6255670747885631
  0.7500000000000000  0.2432367579745645  0.3750000000000000
  0.2500000000000000  0.7477171605952577  0.3750000000000000
  0.9978101197421267  0.0056432022592716  0.5000076776917552
  0.5021898802578733  0.0056432022592716  0.2499923223082448
  0.4978101197421267  0.5056432022592716  0.0000076776917552
  0.0021898802578733  0.5056432022592716  0.7499923223082448
  0.9989363389588277  0.0054846551138468  0.0001578932222159
  0.5010636610411652  0.0054846551138468  0.7498421067777841
  0.4989363389588277  0.5054846551138468  0.5001578932222159
  0.0010636610411723  0.5054846551138468  0.2498421067777841
 
  0.00000000E+00  0.00000000E+00  0.00000000E+00
  0.00000000E+00  0.00000000E+00  0.00000000E+00
  0.00000000E+00  0.00000000E+00  0.00000000E+00
  0.00000000E+00  0.00000000E+00  0.00000000E+00
  0.00000000E+00  0.00000000E+00  0.00000000E+00
  0.00000000E+00  0.00000000E+00  0.00000000E+00
  0.00000000E+00  0.00000000E+00  0.00000000E+00
  0.00000000E+00  0.00000000E+00  0.00000000E+00
  0.00000000E+00  0.00000000E+00  0.00000000E+00
  0.00000000E+00  0.00000000E+00  0.00000000E+00
  0.00000000E+00  0.00000000E+00  0.00000000E+00
  0.00000000E+00  0.00000000E+00  0.00000000E+00
  0.00000000E+00  0.00000000E+00  0.00000000E+00
  0.00000000E+00  0.00000000E+00  0.00000000E+00
  0.00000000E+00  0.00000000E+00  0.00000000E+00
  0.00000000E+00  0.00000000E+00  0.00000000E+00
