generated by phonopy                    
   1.00000000000000     
    10.5159301757999994    0.0000000000000000    0.0000000000000000
     0.0000000000000000   10.5170524021152971    0.0000000000000000
     0.3633334103000000    0.0000000000000000   10.4045075629999992
   S    Cu   Fe
    32    16    16
Direct
  0.1261778996884146  0.1228360954340673  0.1253496232881091
  0.6261778846884098  0.1228360954340673  0.1253496232881091
  0.1261778996884146  0.6228360954340673  0.1253496232881091
  0.6261778846884098  0.6228360954340673  0.1253496232881091
  0.3738221153115830  0.3728360954340673  0.1246503767118909
  0.8738221153115902  0.3728360954340673  0.1246503767118909
  0.3738221153115830  0.8728360954340673  0.1246503767118909
  0.8738221153115902  0.8728360954340673  0.1246503767118909
  0.1250000000000000  0.3723204359847188  0.8750000000000000
  0.6250000000000000  0.3723204359847188  0.8750000000000000
  0.1250000000000000  0.8723204359846974  0.8750000000000000
  0.6250000000000000  0.8723204359846974  0.8750000000000000
  0.3750000000000000  0.1245686830460428  0.8750000000000000
  0.8750000000000000  0.1245686830460428  0.8750000000000000
  0.3750000000000000  0.6245686680460452  0.8750000000000000
  0.8750000000000000  0.6245686680460452  0.8750000000000000
  0.1238221073115824  0.1228360954340673  0.6246503767119123
  0.6238221153115902  0.1228360954340673  0.6246503767119123
  0.1238221073115824  0.6228360954340673  0.6246503767119123
  0.6238221153115902  0.6228360954340673  0.6246503767119123
  0.3761778846884170  0.3728360954340673  0.6253496232880877
  0.8761778846884098  0.3728360954340673  0.6253496232880877
  0.3761778846884170  0.8728360954340673  0.6253496232880877
  0.8761778846884098  0.8728360954340673  0.6253496232880877
  0.3750000000000000  0.1223204279847181  0.3750000000000000
  0.8750000000000000  0.1223204279847181  0.3750000000000000
  0.3750000000000000  0.6223204359846974  0.3750000000000000
  0.8750000000000000  0.6223204359846974  0.3750000000000000
  0.1250000000000000  0.3745686680460452  0.3750000000000000
  0.6250000000000000  0.3745686680460452  0.3750000000000000
  0.1250000000000000  0.8745686680460452  0.3750000000000000
  0.6250000000000000  0.8745686680460452  0.3750000000000000
  0.9993694061516294  0.0018985178681064  0.5000034061812499
  0.4993694061516365  0.0018985178681064  0.5000034061812499
  0.9993694061516294  0.5018985178681135  0.5000034061812499
  0.4993694061516365  0.5018985178681135  0.5000034061812499
  0.2506305938483635  0.0018985178681064  0.2499965938187501
  0.7506305938483706  0.0018985178681064  0.2499965938187501
  0.2506305938483635  0.5018985178681135  0.2499965938187501
  0.7506305938483706  0.5018985178681135  0.2499965938187501
  0.2493694061516294  0.2518985178680992  0.0000034061812428
  0.7493694061516294  0.2518985178680992  0.0000034061812428
  0.2493694061516294  0.7518985178681135  0.0000034061812428
  0.7493694061516294  0.7518985178681135  0.0000034061812428
  0.0006305938483635  0.2518985178680992  0.7499965938187572
  0.5006305938483706  0.2518985178680992  0.7499965938187572
  0.0006305938483635  0.7518985178681135  0.7499965938187572
  0.5006305938483706  0.7518985178681135  0.7499965938187572
  0.9996873823088137  0.0018208346824551  0.0000574875693857
  0.4996873823088279  0.0018208346824551  0.0000574875693857
  0.9996873823088137  0.5018208346824622  0.0000574875693857
  0.4996873823088279  0.5018208346824622  0.0000574875693857
  0.2503126176911721  0.0018208346824551  0.7499425124306001
  0.7503126176911863  0.0018208346824551  0.7499425124306001
  0.2503126176911721  0.5018208346824622  0.7499425124306001
  0.7503126176911863  0.5018208346824622  0.7499425124306001
  0.2496873823088279  0.2518208346824693  0.5000574875693999
  0.7496873823088137  0.2518208346824693  0.5000574875693999
  0.2496873823088279  0.7518208346824622  0.5000574875693999
  0.7496873823088137  0.7518208346824622  0.5000574875693999
  0.0003126176911721  0.2518208346824693  0.2499425124306143
  0.5003126176911863  0.2518208346824693  0.2499425124306143
  0.0003126176911721  0.7518208346824622  0.2499425124306143
  0.5003126176911863  0.7518208346824622  0.2499425124306143
 
  0.00000000E+00  0.00000000E+00  0.00000000E+00
  0.00000000E+00  0.00000000E+00  0.00000000E+00
  0.00000000E+00  0.00000000E+00  0.00000000E+00
  0.00000000E+00  0.00000000E+00  0.00000000E+00
  0.00000000E+00  0.00000000E+00  0.00000000E+00
  0.00000000E+00  0.00000000E+00  0.00000000E+00
  0.00000000E+00  0.00000000E+00  0.00000000E+00
  0.00000000E+00  0.00000000E+00  0.00000000E+00
  0.00000000E+00  0.00000000E+00  0.00000000E+00
  0.00000000E+00  0.00000000E+00  0.00000000E+00
  0.00000000E+00  0.00000000E+00  0.00000000E+00
  0.00000000E+00  0.00000000E+00  0.00000000E+00
  0.00000000E+00  0.00000000E+00  0.00000000E+00
  0.00000000E+00  0.00000000E+00  0.00000000E+00
  0.00000000E+00  0.00000000E+00  0.00000000E+00
  0.00000000E+00  0.00000000E+00  0.00000000E+00
  0.00000000E+00  0.00000000E+00  0.00000000E+00
  0.00000000E+00  0.00000000E+00  0.00000000E+00
  0.00000000E+00  0.00000000E+00  0.00000000E+00
  0.00000000E+00  0.00000000E+00  0.00000000E+00
  0.00000000E+00  0.00000000E+00  0.00000000E+00
  0.00000000E+00  0.00000000E+00  0.00000000E+00
  0.00000000E+00  0.00000000E+00  0.00000000E+00
  0.00000000E+00  0.00000000E+00  0.00000000E+00
  0.00000000E+00  0.00000000E+00  0.00000000E+00
  0.00000000E+00  0.00000000E+00  0.00000000E+00
  0.00000000E+00  0.00000000E+00  0.00000000E+00
  0.00000000E+00  0.00000000E+00  0.00000000E+00
  0.00000000E+00  0.00000000E+00  0.00000000E+00
  0.00000000E+00  0.00000000E+00  0.00000000E+00
  0.00000000E+00  0.00000000E+00  0.00000000E+00
  0.00000000E+00  0.00000000E+00  0.00000000E+00
  0.00000000E+00  0.00000000E+00  0.00000000E+00
  0.00000000E+00  0.00000000E+00  0.00000000E+00
  0.00000000E+00  0.00000000E+00  0.00000000E+00
  0.00000000E+00  0.00000000E+00  0.00000000E+00
  0.00000000E+00  0.00000000E+00  0.00000000E+00
  0.00000000E+00  0.00000000E+00  0.00000000E+00
  0.00000000E+00  0.00000000E+00  0.00000000E+00
  0.00000000E+00  0.00000000E+00  0.00000000E+00
  0.00000000E+00  0.00000000E+00  0.00000000E+00
  0.00000000E+00  0.00000000E+00  0.00000000E+00
  0.00000000E+00  0.00000000E+00  0.00000000E+00
  0.00000000E+00  0.00000000E+00  0.00000000E+00
  0.00000000E+00  0.00000000E+00  0.00000000E+00
  0.00000000E+00  0.00000000E+00  0.00000000E+00
  0.00000000E+00  0.00000000E+00  0.00000000E+00
  0.00000000E+00  0.00000000E+00  0.00000000E+00
  0.00000000E+00  0.00000000E+00  0.00000000E+00
  0.00000000E+00  0.00000000E+00  0.00000000E+00
  0.00000000E+00  0.00000000E+00  0.00000000E+00
  0.00000000E+00  0.00000000E+00  0.00000000E+00
  0.00000000E+00  0.00000000E+00  0.00000000E+00
  0.00000000E+00  0.00000000E+00  0.00000000E+00
  0.00000000E+00  0.00000000E+00  0.00000000E+00
  0.00000000E+00  0.00000000E+00  0.00000000E+00
  0.00000000E+00  0.00000000E+00  0.00000000E+00
  0.00000000E+00  0.00000000E+00  0.00000000E+00
  0.00000000E+00  0.00000000E+00  0.00000000E+00
  0.00000000E+00  0.00000000E+00  0.00000000E+00
  0.00000000E+00  0.00000000E+00  0.00000000E+00
  0.00000000E+00  0.00000000E+00  0.00000000E+00
  0.00000000E+00  0.00000000E+00  0.00000000E+00
  0.00000000E+00  0.00000000E+00  0.00000000E+00
