Fe16 Cu16 S32
1.0
10.515695 0.000000 0.055061
0.000000 10.516104 -0.000000
0.054510 -0.000000 10.410616
S Cu Fe
32 16 16
direct
0.126162 0.124344 0.125109 S
0.626162 0.124344 0.125109 S
0.126162 0.624344 0.125109 S
0.626162 0.624344 0.125109 S
0.373838 0.374344 0.124891 S
0.873838 0.374344 0.124891 S
0.373838 0.874344 0.124891 S
0.873838 0.874344 0.124891 S
0.125000 0.373389 0.875000 S
0.625000 0.373389 0.875000 S
0.125000 0.873389 0.875000 S
0.625000 0.873389 0.875000 S
0.375000 0.125691 0.875000 S
0.875000 0.125691 0.875000 S
0.375000 0.625691 0.875000 S
0.875000 0.625691 0.875000 S
0.123838 0.124344 0.624891 S
0.623838 0.124344 0.624891 S
0.123838 0.624344 0.624891 S
0.623838 0.624344 0.624891 S
0.376162 0.374344 0.625109 S
0.876162 0.374344 0.625109 S
0.376162 0.874344 0.625109 S
0.876162 0.874344 0.625109 S
0.375000 0.123389 0.375000 S
0.875000 0.123389 0.375000 S
0.375000 0.623389 0.375000 S
0.875000 0.623389 0.375000 S
0.125000 0.375691 0.375000 S
0.625000 0.375691 0.375000 S
0.125000 0.875691 0.375000 S
0.625000 0.875691 0.375000 S
-0.000201 0.000566 0.499998 Cu
0.499799 0.000566 0.499998 Cu
-0.000201 0.500566 0.499998 Cu
0.499799 0.500566 0.499998 Cu
0.250201 0.000566 0.250002 Cu
0.750201 0.000566 0.250002 Cu
0.250201 0.500566 0.250002 Cu
0.750201 0.500566 0.250002 Cu
0.249799 0.250566 -0.000002 Cu
0.749799 0.250566 -0.000002 Cu
0.249799 0.750566 -0.000002 Cu
0.749799 0.750566 -0.000002 Cu
0.000201 0.250566 0.750002 Cu
0.500201 0.250566 0.750002 Cu
0.000201 0.750566 0.750002 Cu
0.500201 0.750566 0.750002 Cu
-0.000099 0.000549 0.000010 Fe
0.499901 0.000549 0.000010 Fe
-0.000099 0.500549 0.000010 Fe
0.499901 0.500549 0.000010 Fe
0.250099 0.000549 0.749990 Fe
0.750099 0.000549 0.749990 Fe
0.250099 0.500549 0.749990 Fe
0.750099 0.500549 0.749990 Fe
0.249901 0.250549 0.500010 Fe
0.749901 0.250549 0.500010 Fe
0.249901 0.750549 0.500010 Fe
0.749901 0.750549 0.500010 Fe
0.000099 0.250549 0.249990 Fe
0.500099 0.250549 0.249990 Fe
0.000099 0.750549 0.249990 Fe
0.500099 0.750549 0.249990 Fe
