Fe16 Cu16 S32
1.0
10.503124 0.000000 0.366777
0.000000 10.525932 0.000000
0.363112 0.000000 10.398172
S Cu Fe
32 16 16
direct
0.126390 0.120471 0.125659 S
0.626390 0.120471 0.125659 S
0.126390 0.620471 0.125659 S
0.626390 0.620471 0.125659 S
0.373610 0.370471 0.124341 S
0.873610 0.370471 0.124341 S
0.373610 0.870471 0.124341 S
0.873610 0.870471 0.124341 S
0.125000 0.371401 0.875000 S
0.625000 0.371401 0.875000 S
0.125000 0.871401 0.875000 S
0.625000 0.871401 0.875000 S
0.375000 0.123112 0.875000 S
0.875000 0.123112 0.875000 S
0.375000 0.623112 0.875000 S
0.875000 0.623112 0.875000 S
0.123610 0.120471 0.624341 S
0.623610 0.120471 0.624341 S
0.123610 0.620471 0.624341 S
0.623610 0.620471 0.624341 S
0.376390 0.370471 0.625659 S
0.876390 0.370471 0.625659 S
0.376390 0.870471 0.625659 S
0.876390 0.870471 0.625659 S
0.375000 0.121401 0.375000 S
0.875000 0.121401 0.375000 S
0.375000 0.621401 0.375000 S
0.875000 0.621401 0.375000 S
0.125000 0.373112 0.375000 S
0.625000 0.373112 0.375000 S
0.125000 0.873112 0.375000 S
0.625000 0.873112 0.375000 S
-0.001746 0.003674 0.500016 Cu
0.498254 0.003674 0.500016 Cu
-0.001746 0.503674 0.500016 Cu
0.498254 0.503674 0.500016 Cu
0.251746 0.003674 0.249984 Cu
0.751746 0.003674 0.249984 Cu
0.251746 0.503674 0.249984 Cu
0.751746 0.503674 0.249984 Cu
0.248254 0.253674 0.000016 Cu
0.748254 0.253674 0.000016 Cu
0.248254 0.753674 0.000016 Cu
0.748254 0.753674 0.000016 Cu
0.001746 0.253674 0.749984 Cu
0.501746 0.253674 0.749984 Cu
0.001746 0.753674 0.749984 Cu
0.501746 0.753674 0.749984 Cu
-0.001047 0.003598 0.000645 Fe
0.498953 0.003598 0.000645 Fe
-0.001047 0.503598 0.000645 Fe
0.498953 0.503598 0.000645 Fe
0.251047 0.003598 0.749355 Fe
0.751047 0.003598 0.749355 Fe
0.251047 0.503598 0.749355 Fe
0.751047 0.503598 0.749355 Fe
0.248953 0.253598 0.500645 Fe
0.748953 0.253598 0.500645 Fe
0.248953 0.753598 0.500645 Fe
0.748953 0.753598 0.500645 Fe
0.001047 0.253598 0.249355 Fe
0.501047 0.253598 0.249355 Fe
0.001047 0.753598 0.249355 Fe
0.501047 0.753598 0.249355 Fe
