Fe16 Cu16 S32
1.0
10.483922 0.000000 0.733219
0.000000 10.542222 -0.000000
0.725893 -0.000000 10.379161
S Cu Fe
32 16 16
direct
0.126780 0.115782 0.126304 S
0.626780 0.115782 0.126304 S
0.126780 0.615782 0.126304 S
0.626780 0.615782 0.126304 S
0.373220 0.365782 0.123696 S
0.873220 0.365782 0.123696 S
0.373220 0.865782 0.123696 S
0.873220 0.865782 0.123696 S
0.125000 0.369447 0.875000 S
0.625000 0.369447 0.875000 S
0.125000 0.869447 0.875000 S
0.625000 0.869447 0.875000 S
0.375000 0.120273 0.875000 S
0.875000 0.120273 0.875000 S
0.375000 0.620273 0.875000 S
0.875000 0.620273 0.875000 S
0.123220 0.115782 0.623696 S
0.623220 0.115782 0.623696 S
0.123220 0.615782 0.623696 S
0.623220 0.615782 0.623696 S
0.376780 0.365782 0.626304 S
0.876780 0.365782 0.626304 S
0.376780 0.865782 0.626304 S
0.876780 0.865782 0.626304 S
0.375000 0.119447 0.375000 S
0.875000 0.119447 0.375000 S
0.375000 0.619447 0.375000 S
0.875000 0.619447 0.375000 S
0.125000 0.370273 0.375000 S
0.625000 0.370273 0.375000 S
0.125000 0.870273 0.375000 S
0.625000 0.870273 0.375000 S
-0.003915 0.007170 0.500087 Cu
0.496085 0.007170 0.500087 Cu
-0.003915 0.507170 0.500087 Cu
0.496085 0.507170 0.500087 Cu
0.253915 0.007170 0.249913 Cu
0.753915 0.007170 0.249913 Cu
0.253915 0.507170 0.249913 Cu
0.753915 0.507170 0.249913 Cu
0.246085 0.257170 0.000087 Cu
0.746085 0.257170 0.000087 Cu
0.246085 0.757170 0.000087 Cu
0.746085 0.757170 0.000087 Cu
0.003915 0.257170 0.749913 Cu
0.503915 0.257170 0.749913 Cu
0.003915 0.757170 0.749913 Cu
0.503915 0.757170 0.749913 Cu
-0.002507 0.007188 0.001780 Fe
0.497493 0.007188 0.001780 Fe
-0.002507 0.507188 0.001780 Fe
0.497493 0.507188 0.001780 Fe
0.252507 0.007188 0.748220 Fe
0.752507 0.007188 0.748220 Fe
0.252507 0.507188 0.748220 Fe
0.752507 0.507188 0.748220 Fe
0.247493 0.257188 0.501780 Fe
0.747493 0.257188 0.501780 Fe
0.247493 0.757188 0.501780 Fe
0.747493 0.757188 0.501780 Fe
0.002507 0.257188 0.248220 Fe
0.502507 0.257188 0.248220 Fe
0.002507 0.757188 0.248220 Fe
0.502507 0.757188 0.248220 Fe
