Fe16 Cu16 S32                           
   1.00000000000000     
    10.4799199999999999    0.8248720000000000    0.0000000000000000
     0.8248720000000000   10.4799199999999999    0.0000000000000000
     0.0000000000000000    0.0000000000000000   10.4479188512754924
   S    Cu   Fe
    32    16    16
Direct
  0.1259908215672425  0.1258788102419359  0.1165147175060568
  0.6259908215672425  0.1258788102419359  0.1165147175060568
  0.1259908215672425  0.6258788102419359  0.1165147175060568
  0.6259908215672425  0.6258788102419359  0.1165147175060568
  0.3740091784327575  0.3741211897580641  0.1165147175060568
  0.8740091784327575  0.3741211897580641  0.1165147175060568
  0.3740091784327575  0.8741211897580641  0.1165147175060568
  0.8740091784327575  0.8741211897580641  0.1165147175060568
  0.1241211897580641  0.3740091784327575  0.8665147175060568
  0.6241211897580641  0.3740091784327575  0.8665147175060568
  0.1241211897580641  0.8740091784327575  0.8665147175060568
  0.6241211897580641  0.8740091784327575  0.8665147175060568
  0.3758788102419359  0.1259908215672425  0.8665147175060568
  0.8758788102419359  0.1259908215672425  0.8665147175060568
  0.3758788102419359  0.6259908215672425  0.8665147175060568
  0.8758788102419359  0.6259908215672425  0.8665147175060568
  0.1240091784327575  0.1241211897580641  0.6165147175060568
  0.6240091784327575  0.1241211897580641  0.6165147175060568
  0.1240091784327575  0.6241211897580641  0.6165147175060568
  0.6240091784327575  0.6241211897580641  0.6165147175060568
  0.3759908215672425  0.3758788102419359  0.6165147175060568
  0.8759908215672425  0.3758788102419359  0.6165147175060568
  0.3759908215672425  0.8758788102419359  0.6165147175060568
  0.8759908215672425  0.8758788102419359  0.6165147175060568
  0.3741211897580641  0.1240091784327575  0.3665147175060568
  0.8741211897580641  0.1240091784327575  0.3665147175060568
  0.3741211897580641  0.6240091784327575  0.3665147175060568
  0.8741211897580641  0.6240091784327575  0.3665147175060568
  0.1258788102419359  0.3759908215672425  0.3665147175060568
  0.6258788102419359  0.3759908215672425  0.3665147175060568
  0.1258788102419359  0.8759908215672425  0.3665147175060568
  0.6258788102419359  0.8759908215672425  0.3665147175060568
  0.0000000000000000  0.0000000000000000  0.5073346409754151
  0.5000000000000000  0.0000000000000000  0.5073346409754151
  0.0000000000000000  0.5000000000000000  0.5073346409754151
  0.5000000000000000  0.5000000000000000  0.5073346409754151
  0.2500000000000000  0.0000000000000000  0.2573346409754151
  0.7500000000000000  0.0000000000000000  0.2573346409754151
  0.2500000000000000  0.5000000000000000  0.2573346409754151
  0.7500000000000000  0.5000000000000000  0.2573346409754151
  0.2500000000000000  0.2500000000000000  0.0073346409754151
  0.7500000000000000  0.2500000000000000  0.0073346409754151
  0.2500000000000000  0.7500000000000000  0.0073346409754151
  0.7500000000000000  0.7500000000000000  0.0073346409754151
  0.0000000000000000  0.2500000000000000  0.7573346409754151
  0.5000000000000000  0.2500000000000000  0.7573346409754151
  0.0000000000000000  0.7500000000000000  0.7573346409754151
  0.5000000000000000  0.7500000000000000  0.7573346409754151
  0.0000000000000000  0.0000000000000000  0.0096359240124784
  0.5000000000000000  0.0000000000000000  0.0096359240124784
  0.0000000000000000  0.5000000000000000  0.0096359240124784
  0.5000000000000000  0.5000000000000000  0.0096359240124784
  0.2500000000000000  0.0000000000000000  0.7596359240124855
  0.7500000000000000  0.0000000000000000  0.7596359240124855
  0.2500000000000000  0.5000000000000000  0.7596359240124855
  0.7500000000000000  0.5000000000000000  0.7596359240124855
  0.2500000000000000  0.2500000000000000  0.5096359240124855
  0.7500000000000000  0.2500000000000000  0.5096359240124855
  0.2500000000000000  0.7500000000000000  0.5096359240124855
  0.7500000000000000  0.7500000000000000  0.5096359240124855
  0.0000000000000000  0.2500000000000000  0.2596359240124784
  0.5000000000000000  0.2500000000000000  0.2596359240124784
  0.0000000000000000  0.7500000000000000  0.2596359240124784
  0.5000000000000000  0.7500000000000000  0.2596359240124784
 
  0.00000000E+00  0.00000000E+00  0.00000000E+00
  0.00000000E+00  0.00000000E+00  0.00000000E+00
  0.00000000E+00  0.00000000E+00  0.00000000E+00
  0.00000000E+00  0.00000000E+00  0.00000000E+00
  0.00000000E+00  0.00000000E+00  0.00000000E+00
  0.00000000E+00  0.00000000E+00  0.00000000E+00
  0.00000000E+00  0.00000000E+00  0.00000000E+00
  0.00000000E+00  0.00000000E+00  0.00000000E+00
  0.00000000E+00  0.00000000E+00  0.00000000E+00
  0.00000000E+00  0.00000000E+00  0.00000000E+00
  0.00000000E+00  0.00000000E+00  0.00000000E+00
  0.00000000E+00  0.00000000E+00  0.00000000E+00
  0.00000000E+00  0.00000000E+00  0.00000000E+00
  0.00000000E+00  0.00000000E+00  0.00000000E+00
  0.00000000E+00  0.00000000E+00  0.00000000E+00
  0.00000000E+00  0.00000000E+00  0.00000000E+00
  0.00000000E+00  0.00000000E+00  0.00000000E+00
  0.00000000E+00  0.00000000E+00  0.00000000E+00
  0.00000000E+00  0.00000000E+00  0.00000000E+00
  0.00000000E+00  0.00000000E+00  0.00000000E+00
  0.00000000E+00  0.00000000E+00  0.00000000E+00
  0.00000000E+00  0.00000000E+00  0.00000000E+00
  0.00000000E+00  0.00000000E+00  0.00000000E+00
  0.00000000E+00  0.00000000E+00  0.00000000E+00
  0.00000000E+00  0.00000000E+00  0.00000000E+00
  0.00000000E+00  0.00000000E+00  0.00000000E+00
  0.00000000E+00  0.00000000E+00  0.00000000E+00
  0.00000000E+00  0.00000000E+00  0.00000000E+00
  0.00000000E+00  0.00000000E+00  0.00000000E+00
  0.00000000E+00  0.00000000E+00  0.00000000E+00
  0.00000000E+00  0.00000000E+00  0.00000000E+00
  0.00000000E+00  0.00000000E+00  0.00000000E+00
  0.00000000E+00  0.00000000E+00  0.00000000E+00
  0.00000000E+00  0.00000000E+00  0.00000000E+00
  0.00000000E+00  0.00000000E+00  0.00000000E+00
  0.00000000E+00  0.00000000E+00  0.00000000E+00
  0.00000000E+00  0.00000000E+00  0.00000000E+00
  0.00000000E+00  0.00000000E+00  0.00000000E+00
  0.00000000E+00  0.00000000E+00  0.00000000E+00
  0.00000000E+00  0.00000000E+00  0.00000000E+00
  0.00000000E+00  0.00000000E+00  0.00000000E+00
  0.00000000E+00  0.00000000E+00  0.00000000E+00
  0.00000000E+00  0.00000000E+00  0.00000000E+00
  0.00000000E+00  0.00000000E+00  0.00000000E+00
  0.00000000E+00  0.00000000E+00  0.00000000E+00
  0.00000000E+00  0.00000000E+00  0.00000000E+00
  0.00000000E+00  0.00000000E+00  0.00000000E+00
  0.00000000E+00  0.00000000E+00  0.00000000E+00
  0.00000000E+00  0.00000000E+00  0.00000000E+00
  0.00000000E+00  0.00000000E+00  0.00000000E+00
  0.00000000E+00  0.00000000E+00  0.00000000E+00
  0.00000000E+00  0.00000000E+00  0.00000000E+00
  0.00000000E+00  0.00000000E+00  0.00000000E+00
  0.00000000E+00  0.00000000E+00  0.00000000E+00
  0.00000000E+00  0.00000000E+00  0.00000000E+00
  0.00000000E+00  0.00000000E+00  0.00000000E+00
  0.00000000E+00  0.00000000E+00  0.00000000E+00
  0.00000000E+00  0.00000000E+00  0.00000000E+00
  0.00000000E+00  0.00000000E+00  0.00000000E+00
  0.00000000E+00  0.00000000E+00  0.00000000E+00
  0.00000000E+00  0.00000000E+00  0.00000000E+00
  0.00000000E+00  0.00000000E+00  0.00000000E+00
  0.00000000E+00  0.00000000E+00  0.00000000E+00
  0.00000000E+00  0.00000000E+00  0.00000000E+00
