Fe4 Cu4 S8                              
   1.00000000000000     
     5.2507809999999999    0.0000000000000000    0.1833330000000000
     0.0000000000000000    5.2679665755023253    0.0000000000000000
     0.3628580000000000    0.0000000000000000   10.3924920000000007
   S    Cu   Fe
     8     4     4
Direct
  0.2526251650087303  0.2411590373355637  0.1257373152343177
  0.7473748349912697  0.7411590373355565  0.1242626847656823
  0.2500000000000000  0.7419107752295346  0.8750000000000000
  0.7500000000000000  0.2461714769235783  0.8750000000000000
  0.2473748349912697  0.2411590373355637  0.6242626847656680
  0.7526251650087303  0.7411590373355565  0.6257373152343320
  0.7500000000000000  0.2419107752295417  0.3750000000000000
  0.2500000000000000  0.7461714769235712  0.3750000000000000
  0.9970106399145067  0.0075138125730163  0.5000281208334343
  0.5029893600854933  0.0075138125730163  0.2499718791665586
  0.4970106399145138  0.5075138125730021  0.0000281208334414
  0.0029893600854933  0.5075138125730021  0.7499718791665657
  0.9984837066503900  0.0072860240148671  0.0002815687165167
  0.5015162933496029  0.0072860240148671  0.7497184312834904
  0.4984837066503900  0.5072860240148671  0.5002815687165096
  0.0015162933496100  0.5072860240148671  0.2497184312834833
 
  0.00000000E+00  0.00000000E+00  0.00000000E+00
  0.00000000E+00  0.00000000E+00  0.00000000E+00
  0.00000000E+00  0.00000000E+00  0.00000000E+00
  0.00000000E+00  0.00000000E+00  0.00000000E+00
  0.00000000E+00  0.00000000E+00  0.00000000E+00
  0.00000000E+00  0.00000000E+00  0.00000000E+00
  0.00000000E+00  0.00000000E+00  0.00000000E+00
  0.00000000E+00  0.00000000E+00  0.00000000E+00
  0.00000000E+00  0.00000000E+00  0.00000000E+00
  0.00000000E+00  0.00000000E+00  0.00000000E+00
  0.00000000E+00  0.00000000E+00  0.00000000E+00
  0.00000000E+00  0.00000000E+00  0.00000000E+00
  0.00000000E+00  0.00000000E+00  0.00000000E+00
  0.00000000E+00  0.00000000E+00  0.00000000E+00
  0.00000000E+00  0.00000000E+00  0.00000000E+00
  0.00000000E+00  0.00000000E+00  0.00000000E+00
