Fe16 Cu16 S32
1.0
10.499724 0.000000 0.412535
0.000000 10.528884 0.000000
0.408413 0.000000 10.394805
S Cu Fe
32 16 16
direct
0.126472 0.119839 0.125737 S
0.626472 0.119839 0.125737 S
0.126472 0.619839 0.125737 S
0.626472 0.619839 0.125737 S
0.373528 0.369839 0.124263 S
0.873528 0.369839 0.124263 S
0.373528 0.869839 0.124263 S
0.873528 0.869839 0.124263 S
0.125000 0.371261 0.875000 S
0.625000 0.371261 0.875000 S
0.125000 0.871261 0.875000 S
0.625000 0.871261 0.875000 S
0.375000 0.122796 0.875000 S
0.875000 0.122796 0.875000 S
0.375000 0.622796 0.875000 S
0.875000 0.622796 0.875000 S
0.123528 0.119839 0.624263 S
0.623528 0.119839 0.624263 S
0.123528 0.619839 0.624263 S
0.623528 0.619839 0.624263 S
0.376472 0.369839 0.625737 S
0.876472 0.369839 0.625737 S
0.376472 0.869839 0.625737 S
0.876472 0.869839 0.625737 S
0.375000 0.121261 0.375000 S
0.875000 0.121261 0.375000 S
0.375000 0.621261 0.375000 S
0.875000 0.621261 0.375000 S
0.125000 0.372796 0.375000 S
0.625000 0.372796 0.375000 S
0.125000 0.872796 0.375000 S
0.625000 0.872796 0.375000 S
-0.002108 0.004085 0.500019 Cu
0.497892 0.004085 0.500019 Cu
-0.002108 0.504085 0.500019 Cu
0.497892 0.504085 0.500019 Cu
0.252108 0.004085 0.249981 Cu
0.752108 0.004085 0.249981 Cu
0.252108 0.504085 0.249981 Cu
0.752108 0.504085 0.249981 Cu
0.247892 0.254085 0.000019 Cu
0.747892 0.254085 0.000019 Cu
0.247892 0.754085 0.000019 Cu
0.747892 0.754085 0.000019 Cu
0.002108 0.254085 0.749981 Cu
0.502108 0.254085 0.749981 Cu
0.002108 0.754085 0.749981 Cu
0.502108 0.754085 0.749981 Cu
-0.001316 0.004048 0.000879 Fe
0.498684 0.004048 0.000879 Fe
-0.001316 0.504048 0.000879 Fe
0.498684 0.504048 0.000879 Fe
0.251316 0.004048 0.749121 Fe
0.751316 0.004048 0.749121 Fe
0.251316 0.504048 0.749121 Fe
0.751316 0.504048 0.749121 Fe
0.248684 0.254048 0.500879 Fe
0.748684 0.254048 0.500879 Fe
0.248684 0.754048 0.500879 Fe
0.748684 0.754048 0.500879 Fe
0.001316 0.254048 0.249121 Fe
0.501316 0.254048 0.249121 Fe
0.001316 0.754048 0.249121 Fe
0.501316 0.754048 0.249121 Fe
