generated by phonopy                    
   1.00000000000000     
    10.5159301757999994    0.0000000000000000    0.0000000000000000
     0.0000000000000000   10.5418321086566884    0.0000000000000000
     1.6286156833000001    0.0000000000000000   10.2826747372000007
   S    Cu   Fe
    32    16    16
Direct
  0.1267863868748620  0.1146776533649287  0.1264740426865529
  0.6267863718748643  0.1146776533649287  0.1264740426865529
  0.1267863868748620  0.6146776533649287  0.1264740426865529
  0.6267863718748643  0.6146776533649287  0.1264740426865529
  0.3732136281251428  0.3646776533649287  0.1235259573134471
  0.8732136281251357  0.3646776533649287  0.1235259573134471
  0.3732136281251428  0.8646776533649287  0.1235259573134471
  0.8732136281251357  0.8646776533649287  0.1235259573134471
  0.1250000000000000  0.3686793795232006  0.8750000000000000
  0.6250000000000000  0.3686793795232006  0.8750000000000000
  0.1250000000000000  0.8686793795232077  0.8750000000000000
  0.6250000000000000  0.8686793795232077  0.8750000000000000
  0.3750000000000000  0.1194349553791909  0.8750000000000000
  0.8750000000000000  0.1194349553791909  0.8750000000000000
  0.3750000000000000  0.6194349403791861  0.8750000000000000
  0.8750000000000000  0.6194349403791861  0.8750000000000000
  0.1232136201251421  0.1146776533649287  0.6235259573134471
  0.6232136281251357  0.1146776533649287  0.6235259573134471
  0.1232136201251421  0.6146776533649287  0.6235259573134471
  0.6232136281251357  0.6146776533649287  0.6235259573134471
  0.3767863718748572  0.3646776533649287  0.6264740426865529
  0.8767863718748643  0.3646776533649287  0.6264740426865529
  0.3767863718748572  0.8646776533649287  0.6264740426865529
  0.8767863718748643  0.8646776533649287  0.6264740426865529
  0.3750000000000000  0.1186793715232071  0.3750000000000000
  0.8750000000000000  0.1186793715232071  0.3750000000000000
  0.3750000000000000  0.6186793795232077  0.3750000000000000
  0.8750000000000000  0.6186793795232077  0.3750000000000000
  0.1250000000000000  0.3694349403791932  0.3750000000000000
  0.6250000000000000  0.3694349403791932  0.3750000000000000
  0.1250000000000000  0.8694349403791861  0.3750000000000000
  0.6250000000000000  0.8694349403791861  0.3750000000000000
  0.9957846302904301  0.0081693784095407  0.5000370693703715
  0.4957846302904301  0.0081693784095407  0.5000370693703715
  0.9957846302904301  0.5081693784095407  0.5000370693703715
  0.4957846302904301  0.5081693784095407  0.5000370693703715
  0.2542153697095699  0.0081693784095407  0.2499629306296214
  0.7542153697095770  0.0081693784095407  0.2499629306296214
  0.2542153697095699  0.5081693784095407  0.2499629306296214
  0.7542153697095770  0.5081693784095407  0.2499629306296214
  0.2457846302904301  0.2581693784095407  0.0000370693703786
  0.7457846302904230  0.2581693784095407  0.0000370693703786
  0.2457846302904301  0.7581693784095407  0.0000370693703786
  0.7457846302904230  0.7581693784095407  0.0000370693703786
  0.0042153697095699  0.2581693784095407  0.7499629306296285
  0.5042153697095770  0.2581693784095407  0.7499629306296285
  0.0042153697095699  0.7581693784095407  0.7499629306296285
  0.5042153697095770  0.7581693784095407  0.7499629306296285
  0.9973673750211134  0.0080958082743336  0.0017589057350236
  0.4973673750211134  0.0080958082743336  0.0017589057350236
  0.9973673750211134  0.5080958082743336  0.0017589057350236
  0.4973673750211134  0.5080958082743336  0.0017589057350236
  0.2526326249788866  0.0080958082743336  0.7482410942649764
  0.7526326249788866  0.0080958082743336  0.7482410942649764
  0.2526326249788866  0.5080958082743336  0.7482410942649764
  0.7526326249788866  0.5080958082743336  0.7482410942649764
  0.2473673750211134  0.2580958082743336  0.5017589057350236
  0.7473673750211134  0.2580958082743336  0.5017589057350236
  0.2473673750211134  0.7580958082743336  0.5017589057350236
  0.7473673750211134  0.7580958082743336  0.5017589057350236
  0.0026326249788866  0.2580958082743336  0.2482410942649764
  0.5026326249788866  0.2580958082743336  0.2482410942649764
  0.0026326249788866  0.7580958082743336  0.2482410942649764
  0.5026326249788866  0.7580958082743336  0.2482410942649764
 
  0.00000000E+00  0.00000000E+00  0.00000000E+00
  0.00000000E+00  0.00000000E+00  0.00000000E+00
  0.00000000E+00  0.00000000E+00  0.00000000E+00
  0.00000000E+00  0.00000000E+00  0.00000000E+00
  0.00000000E+00  0.00000000E+00  0.00000000E+00
  0.00000000E+00  0.00000000E+00  0.00000000E+00
  0.00000000E+00  0.00000000E+00  0.00000000E+00
  0.00000000E+00  0.00000000E+00  0.00000000E+00
  0.00000000E+00  0.00000000E+00  0.00000000E+00
  0.00000000E+00  0.00000000E+00  0.00000000E+00
  0.00000000E+00  0.00000000E+00  0.00000000E+00
  0.00000000E+00  0.00000000E+00  0.00000000E+00
  0.00000000E+00  0.00000000E+00  0.00000000E+00
  0.00000000E+00  0.00000000E+00  0.00000000E+00
  0.00000000E+00  0.00000000E+00  0.00000000E+00
  0.00000000E+00  0.00000000E+00  0.00000000E+00
  0.00000000E+00  0.00000000E+00  0.00000000E+00
  0.00000000E+00  0.00000000E+00  0.00000000E+00
  0.00000000E+00  0.00000000E+00  0.00000000E+00
  0.00000000E+00  0.00000000E+00  0.00000000E+00
  0.00000000E+00  0.00000000E+00  0.00000000E+00
  0.00000000E+00  0.00000000E+00  0.00000000E+00
  0.00000000E+00  0.00000000E+00  0.00000000E+00
  0.00000000E+00  0.00000000E+00  0.00000000E+00
  0.00000000E+00  0.00000000E+00  0.00000000E+00
  0.00000000E+00  0.00000000E+00  0.00000000E+00
  0.00000000E+00  0.00000000E+00  0.00000000E+00
  0.00000000E+00  0.00000000E+00  0.00000000E+00
  0.00000000E+00  0.00000000E+00  0.00000000E+00
  0.00000000E+00  0.00000000E+00  0.00000000E+00
  0.00000000E+00  0.00000000E+00  0.00000000E+00
  0.00000000E+00  0.00000000E+00  0.00000000E+00
  0.00000000E+00  0.00000000E+00  0.00000000E+00
  0.00000000E+00  0.00000000E+00  0.00000000E+00
  0.00000000E+00  0.00000000E+00  0.00000000E+00
  0.00000000E+00  0.00000000E+00  0.00000000E+00
  0.00000000E+00  0.00000000E+00  0.00000000E+00
  0.00000000E+00  0.00000000E+00  0.00000000E+00
  0.00000000E+00  0.00000000E+00  0.00000000E+00
  0.00000000E+00  0.00000000E+00  0.00000000E+00
  0.00000000E+00  0.00000000E+00  0.00000000E+00
  0.00000000E+00  0.00000000E+00  0.00000000E+00
  0.00000000E+00  0.00000000E+00  0.00000000E+00
  0.00000000E+00  0.00000000E+00  0.00000000E+00
  0.00000000E+00  0.00000000E+00  0.00000000E+00
  0.00000000E+00  0.00000000E+00  0.00000000E+00
  0.00000000E+00  0.00000000E+00  0.00000000E+00
  0.00000000E+00  0.00000000E+00  0.00000000E+00
  0.00000000E+00  0.00000000E+00  0.00000000E+00
  0.00000000E+00  0.00000000E+00  0.00000000E+00
  0.00000000E+00  0.00000000E+00  0.00000000E+00
  0.00000000E+00  0.00000000E+00  0.00000000E+00
  0.00000000E+00  0.00000000E+00  0.00000000E+00
  0.00000000E+00  0.00000000E+00  0.00000000E+00
  0.00000000E+00  0.00000000E+00  0.00000000E+00
  0.00000000E+00  0.00000000E+00  0.00000000E+00
  0.00000000E+00  0.00000000E+00  0.00000000E+00
  0.00000000E+00  0.00000000E+00  0.00000000E+00
  0.00000000E+00  0.00000000E+00  0.00000000E+00
  0.00000000E+00  0.00000000E+00  0.00000000E+00
  0.00000000E+00  0.00000000E+00  0.00000000E+00
  0.00000000E+00  0.00000000E+00  0.00000000E+00
  0.00000000E+00  0.00000000E+00  0.00000000E+00
  0.00000000E+00  0.00000000E+00  0.00000000E+00
