generated by phonopy                    
   1.00000000000000     
    10.5159301757999994    0.0000000000000000    0.0000000000000000
     0.0000000000000000   10.5207127165069636    0.0000000000000000
     0.7262241548000000    0.0000000000000000   10.3854892649000004
   S    Cu   Fe
    32    16    16
Direct
  0.1262519099324673  0.1206504668270182  0.1256324432349387
  0.6262518949324621  0.1206504668270182  0.1256324432349387
  0.1262519099324673  0.6206504668270263  0.1256324432349387
  0.6262518949324621  0.6206504668270263  0.1256324432349387
  0.3737481050675296  0.3706504668270184  0.1243675567650615
  0.8737481050675379  0.3706504668270184  0.1243675567650615
  0.3737481050675296  0.8706504668270263  0.1243675567650615
  0.8737481050675379  0.8706504668270263  0.1243675567650615
  0.1250000000000000  0.3709036602263079  0.8750000000000000
  0.6250000000000000  0.3709036602263079  0.8750000000000000
  0.1250000000000000  0.8709036602263076  0.8750000000000000
  0.6250000000000000  0.8709036602263076  0.8750000000000000
  0.3750000000000000  0.1229399521773299  0.8750000000000000
  0.8750000000000000  0.1229399521773299  0.8750000000000000
  0.3750000000000000  0.6229399371773320  0.8750000000000000
  0.8750000000000000  0.6229399371773320  0.8750000000000000
  0.1237480970675366  0.1206504668270182  0.6243675567650596
  0.6237481050675379  0.1206504668270182  0.6243675567650596
  0.1237480970675366  0.6206504668270263  0.6243675567650596
  0.6237481050675379  0.6206504668270263  0.6243675567650596
  0.3762518949324704  0.3706504668270184  0.6256324432349404
  0.8762518949324621  0.3706504668270184  0.6256324432349404
  0.3762518949324704  0.8706504668270263  0.6256324432349404
  0.8762518949324621  0.8706504668270263  0.6256324432349404
  0.3750000000000000  0.1209036522263148  0.3750000000000000
  0.8750000000000000  0.1209036522263148  0.3750000000000000
  0.3750000000000000  0.6209036602263076  0.3750000000000000
  0.8750000000000000  0.6209036602263076  0.3750000000000000
  0.1250000000000000  0.3729399371773318  0.3750000000000000
  0.6250000000000000  0.3729399371773318  0.3750000000000000
  0.1250000000000000  0.8729399371773320  0.3750000000000000
  0.6250000000000000  0.8729399371773320  0.3750000000000000
  0.9987161438299551  0.0038351673116116  0.5000096693911427
  0.4987161438299563  0.0038351673116116  0.5000096693911427
  0.9987161438299551  0.5038351673116110  0.5000096693911427
  0.4987161438299563  0.5038351673116110  0.5000096693911427
  0.2512838561700437  0.0038351673116116  0.2499903306088569
  0.7512838561700449  0.0038351673116116  0.2499903306088569
  0.2512838561700437  0.5038351673116110  0.2499903306088569
  0.7512838561700449  0.5038351673116110  0.2499903306088569
  0.2487161438299562  0.2538351673116108  0.0000096693911431
  0.7487161438299551  0.2538351673116108  0.0000096693911431
  0.2487161438299562  0.7538351673116110  0.0000096693911431
  0.7487161438299551  0.7538351673116110  0.0000096693911431
  0.0012838561700443  0.2538351673116108  0.7499903306088573
  0.5012838561700449  0.2538351673116108  0.7499903306088573
  0.0012838561700443  0.7538351673116110  0.7499903306088573
  0.5012838561700449  0.7538351673116110  0.7499903306088573
  0.9992964897350339  0.0035925671595464  0.0002514924941245
  0.4992964897350339  0.0035925671595464  0.0002514924941245
  0.9992964897350339  0.5035925671595535  0.0002514924941245
  0.4992964897350339  0.5035925671595535  0.0002514924941245
  0.2507035102649661  0.0035925671595464  0.7497485075058761
  0.7507035102649732  0.0035925671595464  0.7497485075058761
  0.2507035102649661  0.5035925671595535  0.7497485075058761
  0.7507035102649732  0.5035925671595535  0.7497485075058761
  0.2492964897350349  0.2535925671595449  0.5002514924941239
  0.7492964897350268  0.2535925671595449  0.5002514924941239
  0.2492964897350349  0.7535925671595535  0.5002514924941239
  0.7492964897350268  0.7535925671595535  0.5002514924941239
  0.0007035102649649  0.2535925671595449  0.2497485075058757
  0.5007035102649732  0.2535925671595449  0.2497485075058757
  0.0007035102649649  0.7535925671595535  0.2497485075058757
  0.5007035102649732  0.7535925671595535  0.2497485075058757
 
  0.00000000E+00  0.00000000E+00  0.00000000E+00
  0.00000000E+00  0.00000000E+00  0.00000000E+00
  0.00000000E+00  0.00000000E+00  0.00000000E+00
  0.00000000E+00  0.00000000E+00  0.00000000E+00
  0.00000000E+00  0.00000000E+00  0.00000000E+00
  0.00000000E+00  0.00000000E+00  0.00000000E+00
  0.00000000E+00  0.00000000E+00  0.00000000E+00
  0.00000000E+00  0.00000000E+00  0.00000000E+00
  0.00000000E+00  0.00000000E+00  0.00000000E+00
  0.00000000E+00  0.00000000E+00  0.00000000E+00
  0.00000000E+00  0.00000000E+00  0.00000000E+00
  0.00000000E+00  0.00000000E+00  0.00000000E+00
  0.00000000E+00  0.00000000E+00  0.00000000E+00
  0.00000000E+00  0.00000000E+00  0.00000000E+00
  0.00000000E+00  0.00000000E+00  0.00000000E+00
  0.00000000E+00  0.00000000E+00  0.00000000E+00
  0.00000000E+00  0.00000000E+00  0.00000000E+00
  0.00000000E+00  0.00000000E+00  0.00000000E+00
  0.00000000E+00  0.00000000E+00  0.00000000E+00
  0.00000000E+00  0.00000000E+00  0.00000000E+00
  0.00000000E+00  0.00000000E+00  0.00000000E+00
  0.00000000E+00  0.00000000E+00  0.00000000E+00
  0.00000000E+00  0.00000000E+00  0.00000000E+00
  0.00000000E+00  0.00000000E+00  0.00000000E+00
  0.00000000E+00  0.00000000E+00  0.00000000E+00
  0.00000000E+00  0.00000000E+00  0.00000000E+00
  0.00000000E+00  0.00000000E+00  0.00000000E+00
  0.00000000E+00  0.00000000E+00  0.00000000E+00
  0.00000000E+00  0.00000000E+00  0.00000000E+00
  0.00000000E+00  0.00000000E+00  0.00000000E+00
  0.00000000E+00  0.00000000E+00  0.00000000E+00
  0.00000000E+00  0.00000000E+00  0.00000000E+00
  0.00000000E+00  0.00000000E+00  0.00000000E+00
  0.00000000E+00  0.00000000E+00  0.00000000E+00
  0.00000000E+00  0.00000000E+00  0.00000000E+00
  0.00000000E+00  0.00000000E+00  0.00000000E+00
  0.00000000E+00  0.00000000E+00  0.00000000E+00
  0.00000000E+00  0.00000000E+00  0.00000000E+00
  0.00000000E+00  0.00000000E+00  0.00000000E+00
  0.00000000E+00  0.00000000E+00  0.00000000E+00
  0.00000000E+00  0.00000000E+00  0.00000000E+00
  0.00000000E+00  0.00000000E+00  0.00000000E+00
  0.00000000E+00  0.00000000E+00  0.00000000E+00
  0.00000000E+00  0.00000000E+00  0.00000000E+00
  0.00000000E+00  0.00000000E+00  0.00000000E+00
  0.00000000E+00  0.00000000E+00  0.00000000E+00
  0.00000000E+00  0.00000000E+00  0.00000000E+00
  0.00000000E+00  0.00000000E+00  0.00000000E+00
  0.00000000E+00  0.00000000E+00  0.00000000E+00
  0.00000000E+00  0.00000000E+00  0.00000000E+00
  0.00000000E+00  0.00000000E+00  0.00000000E+00
  0.00000000E+00  0.00000000E+00  0.00000000E+00
  0.00000000E+00  0.00000000E+00  0.00000000E+00
  0.00000000E+00  0.00000000E+00  0.00000000E+00
  0.00000000E+00  0.00000000E+00  0.00000000E+00
  0.00000000E+00  0.00000000E+00  0.00000000E+00
  0.00000000E+00  0.00000000E+00  0.00000000E+00
  0.00000000E+00  0.00000000E+00  0.00000000E+00
  0.00000000E+00  0.00000000E+00  0.00000000E+00
  0.00000000E+00  0.00000000E+00  0.00000000E+00
  0.00000000E+00  0.00000000E+00  0.00000000E+00
  0.00000000E+00  0.00000000E+00  0.00000000E+00
  0.00000000E+00  0.00000000E+00  0.00000000E+00
  0.00000000E+00  0.00000000E+00  0.00000000E+00
