Fe16 Cu16 S32                           
   1.00000000000000     
    10.4999289999999998    0.3666100000000000    0.0000000000000000
     0.3666100000000000   10.4999289999999998    0.0000000000000000
     0.0000000000000000    0.0000000000000000   10.4297149999999998
   S    Cu   Fe
    32    16    16
Direct
  0.1261140000000012  0.1254059999999981  0.1211320000000029
  0.6261140000000012  0.1254059999999981  0.1211320000000029
  0.1261140000000012  0.6254059999999981  0.1211320000000029
  0.6261140000000012  0.6254059999999981  0.1211320000000029
  0.3738859999999988  0.3745940000000019  0.1211320000000029
  0.8738859999999988  0.3745940000000019  0.1211320000000029
  0.3738859999999988  0.8745940000000019  0.1211320000000029
  0.8738859999999988  0.8745940000000019  0.1211320000000029
  0.1245940000000019  0.3738859999999988  0.8711320000000029
  0.6245940000000019  0.3738859999999988  0.8711320000000029
  0.1245940000000019  0.8738859999999988  0.8711320000000029
  0.6245940000000019  0.8738859999999988  0.8711320000000029
  0.3754059999999981  0.1261140000000012  0.8711320000000029
  0.8754059999999981  0.1261140000000012  0.8711320000000029
  0.3754059999999981  0.6261140000000012  0.8711320000000029
  0.8754059999999981  0.6261140000000012  0.8711320000000029
  0.1238859999999988  0.1245940000000019  0.6211320000000029
  0.6238859999999988  0.1245940000000019  0.6211320000000029
  0.1238859999999988  0.6245940000000019  0.6211320000000029
  0.6238859999999988  0.6245940000000019  0.6211320000000029
  0.3761140000000012  0.3754059999999981  0.6211320000000029
  0.8761140000000012  0.3754059999999981  0.6211320000000029
  0.3761140000000012  0.8754059999999981  0.6211320000000029
  0.8761140000000012  0.8754059999999981  0.6211320000000029
  0.3745940000000019  0.1238859999999988  0.3711320000000029
  0.8745940000000019  0.1238859999999988  0.3711320000000029
  0.3745940000000019  0.6238859999999988  0.3711320000000029
  0.8745940000000019  0.6238859999999988  0.3711320000000029
  0.1254059999999981  0.3761140000000012  0.3711320000000029
  0.6254059999999981  0.3761140000000012  0.3711320000000029
  0.1254059999999981  0.8761140000000012  0.3711320000000029
  0.6254059999999981  0.8761140000000012  0.3711320000000029
  0.0000000000000000  0.0000000000000000  0.5033549999999991
  0.5000000000000000  0.0000000000000000  0.5033549999999991
  0.0000000000000000  0.5000000000000000  0.5033549999999991
  0.5000000000000000  0.5000000000000000  0.5033549999999991
  0.2500000000000000  0.0000000000000000  0.2533549999999991
  0.7500000000000000  0.0000000000000000  0.2533549999999991
  0.2500000000000000  0.5000000000000000  0.2533549999999991
  0.7500000000000000  0.5000000000000000  0.2533549999999991
  0.2500000000000000  0.2500000000000000  0.0033549999999991
  0.7500000000000000  0.2500000000000000  0.0033549999999991
  0.2500000000000000  0.7500000000000000  0.0033549999999991
  0.7500000000000000  0.7500000000000000  0.0033549999999991
  0.0000000000000000  0.2500000000000000  0.7533549999999991
  0.5000000000000000  0.2500000000000000  0.7533549999999991
  0.0000000000000000  0.7500000000000000  0.7533549999999991
  0.5000000000000000  0.7500000000000000  0.7533549999999991
  0.0000000000000000  0.0000000000000000  0.0043799999999976
  0.5000000000000000  0.0000000000000000  0.0043799999999976
  0.0000000000000000  0.5000000000000000  0.0043799999999976
  0.5000000000000000  0.5000000000000000  0.0043799999999976
  0.2500000000000000  0.0000000000000000  0.7543799999999976
  0.7500000000000000  0.0000000000000000  0.7543799999999976
  0.2500000000000000  0.5000000000000000  0.7543799999999976
  0.7500000000000000  0.5000000000000000  0.7543799999999976
  0.2500000000000000  0.2500000000000000  0.5043799999999976
  0.7500000000000000  0.2500000000000000  0.5043799999999976
  0.2500000000000000  0.7500000000000000  0.5043799999999976
  0.7500000000000000  0.7500000000000000  0.5043799999999976
  0.0000000000000000  0.2500000000000000  0.2543799999999976
  0.5000000000000000  0.2500000000000000  0.2543799999999976
  0.0000000000000000  0.7500000000000000  0.2543799999999976
  0.5000000000000000  0.7500000000000000  0.2543799999999976
 
  0.00000000E+00  0.00000000E+00  0.00000000E+00
  0.00000000E+00  0.00000000E+00  0.00000000E+00
  0.00000000E+00  0.00000000E+00  0.00000000E+00
  0.00000000E+00  0.00000000E+00  0.00000000E+00
  0.00000000E+00  0.00000000E+00  0.00000000E+00
  0.00000000E+00  0.00000000E+00  0.00000000E+00
  0.00000000E+00  0.00000000E+00  0.00000000E+00
  0.00000000E+00  0.00000000E+00  0.00000000E+00
  0.00000000E+00  0.00000000E+00  0.00000000E+00
  0.00000000E+00  0.00000000E+00  0.00000000E+00
  0.00000000E+00  0.00000000E+00  0.00000000E+00
  0.00000000E+00  0.00000000E+00  0.00000000E+00
  0.00000000E+00  0.00000000E+00  0.00000000E+00
  0.00000000E+00  0.00000000E+00  0.00000000E+00
  0.00000000E+00  0.00000000E+00  0.00000000E+00
  0.00000000E+00  0.00000000E+00  0.00000000E+00
  0.00000000E+00  0.00000000E+00  0.00000000E+00
  0.00000000E+00  0.00000000E+00  0.00000000E+00
  0.00000000E+00  0.00000000E+00  0.00000000E+00
  0.00000000E+00  0.00000000E+00  0.00000000E+00
  0.00000000E+00  0.00000000E+00  0.00000000E+00
  0.00000000E+00  0.00000000E+00  0.00000000E+00
  0.00000000E+00  0.00000000E+00  0.00000000E+00
  0.00000000E+00  0.00000000E+00  0.00000000E+00
  0.00000000E+00  0.00000000E+00  0.00000000E+00
  0.00000000E+00  0.00000000E+00  0.00000000E+00
  0.00000000E+00  0.00000000E+00  0.00000000E+00
  0.00000000E+00  0.00000000E+00  0.00000000E+00
  0.00000000E+00  0.00000000E+00  0.00000000E+00
  0.00000000E+00  0.00000000E+00  0.00000000E+00
  0.00000000E+00  0.00000000E+00  0.00000000E+00
  0.00000000E+00  0.00000000E+00  0.00000000E+00
  0.00000000E+00  0.00000000E+00  0.00000000E+00
  0.00000000E+00  0.00000000E+00  0.00000000E+00
  0.00000000E+00  0.00000000E+00  0.00000000E+00
  0.00000000E+00  0.00000000E+00  0.00000000E+00
  0.00000000E+00  0.00000000E+00  0.00000000E+00
  0.00000000E+00  0.00000000E+00  0.00000000E+00
  0.00000000E+00  0.00000000E+00  0.00000000E+00
  0.00000000E+00  0.00000000E+00  0.00000000E+00
  0.00000000E+00  0.00000000E+00  0.00000000E+00
  0.00000000E+00  0.00000000E+00  0.00000000E+00
  0.00000000E+00  0.00000000E+00  0.00000000E+00
  0.00000000E+00  0.00000000E+00  0.00000000E+00
  0.00000000E+00  0.00000000E+00  0.00000000E+00
  0.00000000E+00  0.00000000E+00  0.00000000E+00
  0.00000000E+00  0.00000000E+00  0.00000000E+00
  0.00000000E+00  0.00000000E+00  0.00000000E+00
  0.00000000E+00  0.00000000E+00  0.00000000E+00
  0.00000000E+00  0.00000000E+00  0.00000000E+00
  0.00000000E+00  0.00000000E+00  0.00000000E+00
  0.00000000E+00  0.00000000E+00  0.00000000E+00
  0.00000000E+00  0.00000000E+00  0.00000000E+00
  0.00000000E+00  0.00000000E+00  0.00000000E+00
  0.00000000E+00  0.00000000E+00  0.00000000E+00
  0.00000000E+00  0.00000000E+00  0.00000000E+00
  0.00000000E+00  0.00000000E+00  0.00000000E+00
  0.00000000E+00  0.00000000E+00  0.00000000E+00
  0.00000000E+00  0.00000000E+00  0.00000000E+00
  0.00000000E+00  0.00000000E+00  0.00000000E+00
  0.00000000E+00  0.00000000E+00  0.00000000E+00
  0.00000000E+00  0.00000000E+00  0.00000000E+00
  0.00000000E+00  0.00000000E+00  0.00000000E+00
  0.00000000E+00  0.00000000E+00  0.00000000E+00
