Fe16 Cu16 S32                           
   1.00000000000000     
    10.5079320000000003    0.1833050000000000    0.0000000000000000
     0.1833050000000000   10.5079320000000003    0.0000000000000000
     0.0000000000000000    0.0000000000000000   10.4208195727488331
   S    Cu   Fe
    32    16    16
Direct
  0.1261530682464667  0.1252163555742740  0.1230521434955847
  0.6261530682464667  0.1252163555742740  0.1230521434955847
  0.1261530682464667  0.6252163555742740  0.1230521434955847
  0.6261530682464667  0.6252163555742740  0.1230521434955847
  0.3738469317535262  0.3747836444257189  0.1230521434955847
  0.8738469317535333  0.3747836444257189  0.1230521434955847
  0.3738469317535262  0.8747836444257260  0.1230521434955847
  0.8738469317535333  0.8747836444257260  0.1230521434955847
  0.1247836444257189  0.3738469317535262  0.8730521434955847
  0.6247836444257260  0.3738469317535262  0.8730521434955847
  0.1247836444257189  0.8738469317535333  0.8730521434955847
  0.6247836444257260  0.8738469317535333  0.8730521434955847
  0.3752163555742811  0.1261530682464667  0.8730521434955847
  0.8752163555742740  0.1261530682464667  0.8730521434955847
  0.3752163555742811  0.6261530682464667  0.8730521434955847
  0.8752163555742740  0.6261530682464667  0.8730521434955847
  0.1238469317535333  0.1247836444257189  0.6230521434955847
  0.6238469317535333  0.1247836444257189  0.6230521434955847
  0.1238469317535333  0.6247836444257260  0.6230521434955847
  0.6238469317535333  0.6247836444257260  0.6230521434955847
  0.3761530682464738  0.3752163555742811  0.6230521434955847
  0.8761530682464667  0.3752163555742811  0.6230521434955847
  0.3761530682464738  0.8752163555742740  0.6230521434955847
  0.8761530682464667  0.8752163555742740  0.6230521434955847
  0.3747836444257189  0.1238469317535333  0.3730521434955847
  0.8747836444257260  0.1238469317535333  0.3730521434955847
  0.3747836444257189  0.6238469317535333  0.3730521434955847
  0.8747836444257260  0.6238469317535333  0.3730521434955847
  0.1252163555742740  0.3761530682464738  0.3730521434955847
  0.6252163555742740  0.3761530682464738  0.3730521434955847
  0.1252163555742740  0.8761530682464667  0.3730521434955847
  0.6252163555742740  0.8761530682464667  0.3730521434955847
  0.0000000000000000  0.0000000000000000  0.5016612002490533
  0.5000000000000000  0.0000000000000000  0.5016612002490533
  0.0000000000000000  0.5000000000000000  0.5016612002490533
  0.5000000000000000  0.5000000000000000  0.5016612002490533
  0.2500000000000000  0.0000000000000000  0.2516612002490533
  0.7500000000000000  0.0000000000000000  0.2516612002490533
  0.2500000000000000  0.5000000000000000  0.2516612002490533
  0.7500000000000000  0.5000000000000000  0.2516612002490533
  0.2500000000000000  0.2500000000000000  0.0016612002490533
  0.7500000000000000  0.2500000000000000  0.0016612002490533
  0.2500000000000000  0.7500000000000000  0.0016612002490533
  0.7500000000000000  0.7500000000000000  0.0016612002490533
  0.0000000000000000  0.2500000000000000  0.7516612002490533
  0.5000000000000000  0.2500000000000000  0.7516612002490533
  0.0000000000000000  0.7500000000000000  0.7516612002490533
  0.5000000000000000  0.7500000000000000  0.7516612002490533
  0.0000000000000000  0.0000000000000000  0.0022345127597774
  0.5000000000000000  0.0000000000000000  0.0022345127597774
  0.0000000000000000  0.5000000000000000  0.0022345127597774
  0.5000000000000000  0.5000000000000000  0.0022345127597774
  0.2500000000000000  0.0000000000000000  0.7522345127597703
  0.7500000000000000  0.0000000000000000  0.7522345127597703
  0.2500000000000000  0.5000000000000000  0.7522345127597703
  0.7500000000000000  0.5000000000000000  0.7522345127597703
  0.2500000000000000  0.2500000000000000  0.5022345127597703
  0.7500000000000000  0.2500000000000000  0.5022345127597703
  0.2500000000000000  0.7500000000000000  0.5022345127597703
  0.7500000000000000  0.7500000000000000  0.5022345127597703
  0.0000000000000000  0.2500000000000000  0.2522345127597774
  0.5000000000000000  0.2500000000000000  0.2522345127597774
  0.0000000000000000  0.7500000000000000  0.2522345127597774
  0.5000000000000000  0.7500000000000000  0.2522345127597774
 
  0.00000000E+00  0.00000000E+00  0.00000000E+00
  0.00000000E+00  0.00000000E+00  0.00000000E+00
  0.00000000E+00  0.00000000E+00  0.00000000E+00
  0.00000000E+00  0.00000000E+00  0.00000000E+00
  0.00000000E+00  0.00000000E+00  0.00000000E+00
  0.00000000E+00  0.00000000E+00  0.00000000E+00
  0.00000000E+00  0.00000000E+00  0.00000000E+00
  0.00000000E+00  0.00000000E+00  0.00000000E+00
  0.00000000E+00  0.00000000E+00  0.00000000E+00
  0.00000000E+00  0.00000000E+00  0.00000000E+00
  0.00000000E+00  0.00000000E+00  0.00000000E+00
  0.00000000E+00  0.00000000E+00  0.00000000E+00
  0.00000000E+00  0.00000000E+00  0.00000000E+00
  0.00000000E+00  0.00000000E+00  0.00000000E+00
  0.00000000E+00  0.00000000E+00  0.00000000E+00
  0.00000000E+00  0.00000000E+00  0.00000000E+00
  0.00000000E+00  0.00000000E+00  0.00000000E+00
  0.00000000E+00  0.00000000E+00  0.00000000E+00
  0.00000000E+00  0.00000000E+00  0.00000000E+00
  0.00000000E+00  0.00000000E+00  0.00000000E+00
  0.00000000E+00  0.00000000E+00  0.00000000E+00
  0.00000000E+00  0.00000000E+00  0.00000000E+00
  0.00000000E+00  0.00000000E+00  0.00000000E+00
  0.00000000E+00  0.00000000E+00  0.00000000E+00
  0.00000000E+00  0.00000000E+00  0.00000000E+00
  0.00000000E+00  0.00000000E+00  0.00000000E+00
  0.00000000E+00  0.00000000E+00  0.00000000E+00
  0.00000000E+00  0.00000000E+00  0.00000000E+00
  0.00000000E+00  0.00000000E+00  0.00000000E+00
  0.00000000E+00  0.00000000E+00  0.00000000E+00
  0.00000000E+00  0.00000000E+00  0.00000000E+00
  0.00000000E+00  0.00000000E+00  0.00000000E+00
  0.00000000E+00  0.00000000E+00  0.00000000E+00
  0.00000000E+00  0.00000000E+00  0.00000000E+00
  0.00000000E+00  0.00000000E+00  0.00000000E+00
  0.00000000E+00  0.00000000E+00  0.00000000E+00
  0.00000000E+00  0.00000000E+00  0.00000000E+00
  0.00000000E+00  0.00000000E+00  0.00000000E+00
  0.00000000E+00  0.00000000E+00  0.00000000E+00
  0.00000000E+00  0.00000000E+00  0.00000000E+00
  0.00000000E+00  0.00000000E+00  0.00000000E+00
  0.00000000E+00  0.00000000E+00  0.00000000E+00
  0.00000000E+00  0.00000000E+00  0.00000000E+00
  0.00000000E+00  0.00000000E+00  0.00000000E+00
  0.00000000E+00  0.00000000E+00  0.00000000E+00
  0.00000000E+00  0.00000000E+00  0.00000000E+00
  0.00000000E+00  0.00000000E+00  0.00000000E+00
  0.00000000E+00  0.00000000E+00  0.00000000E+00
  0.00000000E+00  0.00000000E+00  0.00000000E+00
  0.00000000E+00  0.00000000E+00  0.00000000E+00
  0.00000000E+00  0.00000000E+00  0.00000000E+00
  0.00000000E+00  0.00000000E+00  0.00000000E+00
  0.00000000E+00  0.00000000E+00  0.00000000E+00
  0.00000000E+00  0.00000000E+00  0.00000000E+00
  0.00000000E+00  0.00000000E+00  0.00000000E+00
  0.00000000E+00  0.00000000E+00  0.00000000E+00
  0.00000000E+00  0.00000000E+00  0.00000000E+00
  0.00000000E+00  0.00000000E+00  0.00000000E+00
  0.00000000E+00  0.00000000E+00  0.00000000E+00
  0.00000000E+00  0.00000000E+00  0.00000000E+00
  0.00000000E+00  0.00000000E+00  0.00000000E+00
  0.00000000E+00  0.00000000E+00  0.00000000E+00
  0.00000000E+00  0.00000000E+00  0.00000000E+00
  0.00000000E+00  0.00000000E+00  0.00000000E+00
