Fe16 Cu16 S32
1.0
10.505130 0.247461 0.000000
0.247461 10.505130 0.000000
0.000000 0.000000 10.424567
S Cu Fe
32 16 16
direct
0.126141 0.125300 0.122372 S
0.626141 0.125300 0.122372 S
0.126141 0.625300 0.122372 S
0.626141 0.625300 0.122372 S
0.373859 0.374700 0.122372 S
0.873859 0.374700 0.122372 S
0.373859 0.874700 0.122372 S
0.873859 0.874700 0.122372 S
0.124700 0.373859 0.872372 S
0.624700 0.373859 0.872372 S
0.124700 0.873859 0.872372 S
0.624700 0.873859 0.872372 S
0.375300 0.126141 0.872372 S
0.875300 0.126141 0.872372 S
0.375300 0.626141 0.872372 S
0.875300 0.626141 0.872372 S
0.123859 0.124700 0.622372 S
0.623859 0.124700 0.622372 S
0.123859 0.624700 0.622372 S
0.623859 0.624700 0.622372 S
0.376141 0.375300 0.622372 S
0.876141 0.375300 0.622372 S
0.376141 0.875300 0.622372 S
0.876141 0.875300 0.622372 S
0.374700 0.123859 0.372372 S
0.874700 0.123859 0.372372 S
0.374700 0.623859 0.372372 S
0.874700 0.623859 0.372372 S
0.125300 0.376141 0.372372 S
0.625300 0.376141 0.372372 S
0.125300 0.876141 0.372372 S
0.625300 0.876141 0.372372 S
0.000000 0.000000 0.502238 Cu
0.500000 0.000000 0.502238 Cu
0.000000 0.500000 0.502238 Cu
0.500000 0.500000 0.502238 Cu
0.250000 0.000000 0.252238 Cu
0.750000 0.000000 0.252238 Cu
0.250000 0.500000 0.252238 Cu
0.750000 0.500000 0.252238 Cu
0.250000 0.250000 0.002238 Cu
0.750000 0.250000 0.002238 Cu
0.250000 0.750000 0.002238 Cu
0.750000 0.750000 0.002238 Cu
0.000000 0.250000 0.752238 Cu
0.500000 0.250000 0.752238 Cu
0.000000 0.750000 0.752238 Cu
0.500000 0.750000 0.752238 Cu
0.000000 0.000000 0.003017 Fe
0.500000 0.000000 0.003017 Fe
0.000000 0.500000 0.003017 Fe
0.500000 0.500000 0.003017 Fe
0.250000 0.000000 0.753017 Fe
0.750000 0.000000 0.753017 Fe
0.250000 0.500000 0.753017 Fe
0.750000 0.500000 0.753017 Fe
0.250000 0.250000 0.503017 Fe
0.750000 0.250000 0.503017 Fe
0.250000 0.750000 0.503017 Fe
0.750000 0.750000 0.503017 Fe
0.000000 0.250000 0.253017 Fe
0.500000 0.250000 0.253017 Fe
0.000000 0.750000 0.253017 Fe
0.500000 0.750000 0.253017 Fe
