Fe16 Cu16 S32
1.0
10.512333 0.082487 0.000000
0.082487 10.512333 0.000000
0.000000 0.000000 10.415661
S Cu Fe
32 16 16
direct
0.126159 0.125092 0.124121 S
0.626159 0.125092 0.124121 S
0.126159 0.625092 0.124121 S
0.626159 0.625092 0.124121 S
0.373841 0.374908 0.124121 S
0.873841 0.374908 0.124121 S
0.373841 0.874908 0.124121 S
0.873841 0.874908 0.124121 S
0.124908 0.373841 0.874121 S
0.624908 0.373841 0.874121 S
0.124908 0.873841 0.874121 S
0.624908 0.873841 0.874121 S
0.375092 0.126159 0.874121 S
0.875092 0.126159 0.874121 S
0.375092 0.626159 0.874121 S
0.875092 0.626159 0.874121 S
0.123841 0.124908 0.624121 S
0.623841 0.124908 0.624121 S
0.123841 0.624908 0.624121 S
0.623841 0.624908 0.624121 S
0.376159 0.375092 0.624121 S
0.876159 0.375092 0.624121 S
0.376159 0.875092 0.624121 S
0.876159 0.875092 0.624121 S
0.374908 0.123841 0.374121 S
0.874908 0.123841 0.374121 S
0.374908 0.623841 0.374121 S
0.874908 0.623841 0.374121 S
0.125092 0.376159 0.374121 S
0.625092 0.376159 0.374121 S
0.125092 0.876159 0.374121 S
0.625092 0.876159 0.374121 S
0.000000 0.000000 0.500760 Cu
0.500000 0.000000 0.500760 Cu
0.000000 0.500000 0.500760 Cu
0.500000 0.500000 0.500760 Cu
0.250000 0.000000 0.250760 Cu
0.750000 0.000000 0.250760 Cu
0.250000 0.500000 0.250760 Cu
0.750000 0.500000 0.250760 Cu
0.250000 0.250000 0.000760 Cu
0.750000 0.250000 0.000760 Cu
0.250000 0.750000 0.000760 Cu
0.750000 0.750000 0.000760 Cu
0.000000 0.250000 0.750760 Cu
0.500000 0.250000 0.750760 Cu
0.000000 0.750000 0.750760 Cu
0.500000 0.750000 0.750760 Cu
0.000000 0.000000 0.000998 Fe
0.500000 0.000000 0.000998 Fe
0.000000 0.500000 0.000998 Fe
0.500000 0.500000 0.000998 Fe
0.250000 0.000000 0.750998 Fe
0.750000 0.000000 0.750998 Fe
0.250000 0.500000 0.750998 Fe
0.750000 0.500000 0.750998 Fe
0.250000 0.250000 0.500998 Fe
0.750000 0.250000 0.500998 Fe
0.250000 0.750000 0.500998 Fe
0.750000 0.750000 0.500998 Fe
0.000000 0.250000 0.250998 Fe
0.500000 0.250000 0.250998 Fe
0.000000 0.750000 0.250998 Fe
0.500000 0.750000 0.250998 Fe
