sm_isp_SD0310437-standardized_unitcell  
   1.00000000000000     
     4.9958463727441229    0.0000000000000000    0.0000000000000000
     0.0000000000000000    4.9958463727441229    0.0000000000000000
     0.0000000000000000    0.0000000000000000   11.1924493753143910
   S    Cu   Fe
     8     4     4
Direct
  0.2534498254233739  0.2500000000000000  0.1250000000000000
  0.7465502045766215  0.7500000000000000  0.1250000000000000
  0.2500000000000000  0.7465502045766215  0.8750000000000000
  0.7500000000000000  0.2534498254233739  0.8750000000000000
  0.2465501745766190  0.2500000000000000  0.6250000000000000
  0.7534497954233785  0.7500000000000000  0.6250000000000000
  0.7500000000000000  0.2465501745766190  0.3750000000000000
  0.2500000000000000  0.7534497954233785  0.3750000000000000
  0.0000000000000000  0.0000000000000000  0.5000000000000000
  0.5000000000000000  0.0000000000000000  0.2500000000000000
  0.5000000000000000  0.5000000000000000  0.0000000000000000
  0.0000000000000000  0.5000000000000000  0.7500000000000000
  0.0000000000000000  0.0000000000000000  0.0000000000000000
  0.5000000000000000  0.0000000000000000  0.7500000000000000
  0.5000000000000000  0.5000000000000000  0.5000000000000000
  0.0000000000000000  0.5000000000000000  0.2500000000000000
 
  0.00000000E+00  0.00000000E+00  0.00000000E+00
  0.00000000E+00  0.00000000E+00  0.00000000E+00
  0.00000000E+00  0.00000000E+00  0.00000000E+00
  0.00000000E+00  0.00000000E+00  0.00000000E+00
  0.00000000E+00  0.00000000E+00  0.00000000E+00
  0.00000000E+00  0.00000000E+00  0.00000000E+00
  0.00000000E+00  0.00000000E+00  0.00000000E+00
  0.00000000E+00  0.00000000E+00  0.00000000E+00
  0.00000000E+00  0.00000000E+00  0.00000000E+00
  0.00000000E+00  0.00000000E+00  0.00000000E+00
  0.00000000E+00  0.00000000E+00  0.00000000E+00
  0.00000000E+00  0.00000000E+00  0.00000000E+00
  0.00000000E+00  0.00000000E+00  0.00000000E+00
  0.00000000E+00  0.00000000E+00  0.00000000E+00
  0.00000000E+00  0.00000000E+00  0.00000000E+00
  0.00000000E+00  0.00000000E+00  0.00000000E+00
