Fe16 Cu16 S32
1.0
10.514012 0.000000 0.110100
0.000000 10.517368 0.000000
0.109000 0.000000 10.408950
S Cu Fe
32 16 16
direct
0.126186 0.123695 0.125190 S
0.626186 0.123695 0.125190 S
0.126186 0.623695 0.125190 S
0.626186 0.623695 0.125190 S
0.373814 0.373695 0.124810 S
0.873814 0.373695 0.124810 S
0.373814 0.873695 0.124810 S
0.873814 0.873695 0.124810 S
0.125000 0.372961 0.875000 S
0.625000 0.372961 0.875000 S
0.125000 0.872961 0.875000 S
0.625000 0.872961 0.875000 S
0.375000 0.125192 0.875000 S
0.875000 0.125192 0.875000 S
0.375000 0.625192 0.875000 S
0.875000 0.625192 0.875000 S
0.123814 0.123695 0.624810 S
0.623814 0.123695 0.624810 S
0.123814 0.623695 0.624810 S
0.623814 0.623695 0.624810 S
0.376186 0.373695 0.625190 S
0.876186 0.373695 0.625190 S
0.376186 0.873695 0.625190 S
0.876186 0.873695 0.625190 S
0.375000 0.122961 0.375000 S
0.875000 0.122961 0.375000 S
0.375000 0.622961 0.375000 S
0.875000 0.622961 0.375000 S
0.125000 0.375192 0.375000 S
0.625000 0.375192 0.375000 S
0.125000 0.875192 0.375000 S
0.625000 0.875192 0.375000 S
-0.000385 0.001151 0.500003 Cu
0.499615 0.001151 0.500003 Cu
-0.000385 0.501151 0.500003 Cu
0.499615 0.501151 0.500003 Cu
0.250385 0.001151 0.249997 Cu
0.750385 0.001151 0.249997 Cu
0.250385 0.501151 0.249997 Cu
0.750385 0.501151 0.249997 Cu
0.249615 0.251151 0.000003 Cu
0.749615 0.251151 0.000003 Cu
0.249615 0.751151 0.000003 Cu
0.749615 0.751151 0.000003 Cu
0.000385 0.251151 0.749997 Cu
0.500385 0.251151 0.749997 Cu
0.000385 0.751151 0.749997 Cu
0.500385 0.751151 0.749997 Cu
-0.000211 0.001078 0.000075 Fe
0.499789 0.001078 0.000075 Fe
-0.000211 0.501078 0.000075 Fe
0.499789 0.501078 0.000075 Fe
0.250211 0.001078 0.749925 Fe
0.750211 0.001078 0.749925 Fe
0.250211 0.501078 0.749925 Fe
0.750211 0.501078 0.749925 Fe
0.249789 0.251078 0.500075 Fe
0.749789 0.251078 0.500075 Fe
0.249789 0.751078 0.500075 Fe
0.749789 0.751078 0.500075 Fe
0.000211 0.251078 0.249925 Fe
0.500211 0.251078 0.249925 Fe
0.000211 0.751078 0.249925 Fe
0.500211 0.751078 0.249925 Fe
