sm_isp_SD0310437-standardized_unitcell  
   1.00000000000000     
     5.3113735120753303    0.0000000000000000    0.0000000000000000
     0.0000000000000000    5.3113735120753303    0.0000000000000000
     0.0000000000000000    0.0000000000000000   10.2576345231946071
   S    Cu   Fe
     8     4     4
Direct
  0.2521372590382569  0.2500000000000000  0.1250000000000000
  0.7478627709617385  0.7500000000000000  0.1250000000000000
  0.2500000000000000  0.7478627709617385  0.8750000000000000
  0.7500000000000000  0.2521372590382569  0.8750000000000000
  0.2478627409617360  0.2500000000000000  0.6250000000000000
  0.7521372290382615  0.7500000000000000  0.6250000000000000
  0.7500000000000000  0.2478627409617360  0.3750000000000000
  0.2500000000000000  0.7521372290382615  0.3750000000000000
  0.0000000000000000  0.0000000000000000  0.5000000000000000
  0.5000000000000000  0.0000000000000000  0.2500000000000000
  0.5000000000000000  0.5000000000000000  0.0000000000000000
  0.0000000000000000  0.5000000000000000  0.7500000000000000
  0.0000000000000000  0.0000000000000000  0.0000000000000000
  0.5000000000000000  0.0000000000000000  0.7500000000000000
  0.5000000000000000  0.5000000000000000  0.5000000000000000
  0.0000000000000000  0.5000000000000000  0.2500000000000000

