generated by phonopy                    
   1.00000000000000     
    10.5159349441999996    0.0000000000000000    0.0000000000000000
     0.0000000000000000   10.5487936933910706    0.0000000000000000
     1.8078258840000001    0.0000000000000000   10.2526900690999998
   S    Cu   Fe
    32    16    16
Direct
  0.1269362968269689  0.1134770467140243  0.1266297838331667
  0.6269362818269713  0.1134770467140243  0.1266297838331667
  0.1269362968269689  0.6134770467140243  0.1266297838331667
  0.6269362818269713  0.6134770467140243  0.1266297838331667
  0.3730637181730216  0.3634770467140243  0.1233702161668333
  0.8730637181730287  0.3634770467140243  0.1233702161668333
  0.3730637181730216  0.8634770467140243  0.1233702161668333
  0.8730637181730287  0.8634770467140243  0.1233702161668333
  0.1250000000000000  0.3683485846872543  0.8750000000000000
  0.6250000000000000  0.3683485846872543  0.8750000000000000
  0.1250000000000000  0.8683485846872614  0.8750000000000000
  0.6250000000000000  0.8683485846872614  0.8750000000000000
  0.3750000000000000  0.1188024225248299  0.8750000000000000
  0.8750000000000000  0.1188024225248299  0.8750000000000000
  0.3750000000000000  0.6188024075248322  0.8750000000000000
  0.8750000000000000  0.6188024075248322  0.8750000000000000
  0.1230637101730281  0.1134770467140243  0.6233702161668404
  0.6230637181730287  0.1134770467140243  0.6233702161668404
  0.1230637101730281  0.6134770467140243  0.6233702161668404
  0.6230637181730287  0.6134770467140243  0.6233702161668404
  0.3769362818269784  0.3634770467140243  0.6266297838331596
  0.8769362818269713  0.3634770467140243  0.6266297838331596
  0.3769362818269784  0.8634770467140243  0.6266297838331596
  0.8769362818269713  0.8634770467140243  0.6266297838331596
  0.3750000000000000  0.1183485766872607  0.3750000000000000
  0.8750000000000000  0.1183485766872607  0.3750000000000000
  0.3750000000000000  0.6183485846872614  0.3750000000000000
  0.8750000000000000  0.6183485846872614  0.3750000000000000
  0.1250000000000000  0.3688024075248322  0.3750000000000000
  0.6250000000000000  0.3688024075248322  0.3750000000000000
  0.1250000000000000  0.8688024075248322  0.3750000000000000
  0.6250000000000000  0.8688024075248322  0.3750000000000000
  0.9951063637313240  0.0089624805449660  0.5001086106720791
  0.4951063637313240  0.0089624805449660  0.5001086106720791
  0.9951063637313240  0.5089624805449660  0.5001086106720791
  0.4951063637313240  0.5089624805449660  0.5001086106720791
  0.2548936362686760  0.0089624805449660  0.2498913893279280
  0.7548936362686760  0.0089624805449660  0.2498913893279280
  0.2548936362686760  0.5089624805449660  0.2498913893279280
  0.7548936362686760  0.5089624805449660  0.2498913893279280
  0.2451063637313240  0.2589624805449660  0.0001086106720720
  0.7451063637313240  0.2589624805449660  0.0001086106720720
  0.2451063637313240  0.7589624805449660  0.0001086106720720
  0.7451063637313240  0.7589624805449660  0.0001086106720720
  0.0048936362686760  0.2589624805449660  0.7498913893279209
  0.5048936362686760  0.2589624805449660  0.7498913893279209
  0.0048936362686760  0.7589624805449660  0.7498913893279209
  0.5048936362686760  0.7589624805449660  0.7498913893279209
  0.9968656751122609  0.0089849766349630  0.0022248444894117
  0.4968656751122680  0.0089849766349630  0.0022248444894117
  0.9968656751122609  0.5089849766349630  0.0022248444894117
  0.4968656751122680  0.5089849766349630  0.0022248444894117
  0.2531343248877320  0.0089849766349630  0.7477751555105883
  0.7531343248877391  0.0089849766349630  0.7477751555105883
  0.2531343248877320  0.5089849766349630  0.7477751555105883
  0.7531343248877391  0.5089849766349630  0.7477751555105883
  0.2468656751122609  0.2589849766349630  0.5022248444894117
  0.7468656751122609  0.2589849766349630  0.5022248444894117
  0.2468656751122609  0.7589849766349630  0.5022248444894117
  0.7468656751122609  0.7589849766349630  0.5022248444894117
  0.0031343248877391  0.2589849766349630  0.2477751555105883
  0.5031343248877391  0.2589849766349630  0.2477751555105883
  0.0031343248877391  0.7589849766349630  0.2477751555105883
  0.5031343248877391  0.7589849766349630  0.2477751555105883
 
  0.00000000E+00  0.00000000E+00  0.00000000E+00
  0.00000000E+00  0.00000000E+00  0.00000000E+00
  0.00000000E+00  0.00000000E+00  0.00000000E+00
  0.00000000E+00  0.00000000E+00  0.00000000E+00
  0.00000000E+00  0.00000000E+00  0.00000000E+00
  0.00000000E+00  0.00000000E+00  0.00000000E+00
  0.00000000E+00  0.00000000E+00  0.00000000E+00
  0.00000000E+00  0.00000000E+00  0.00000000E+00
  0.00000000E+00  0.00000000E+00  0.00000000E+00
  0.00000000E+00  0.00000000E+00  0.00000000E+00
  0.00000000E+00  0.00000000E+00  0.00000000E+00
  0.00000000E+00  0.00000000E+00  0.00000000E+00
  0.00000000E+00  0.00000000E+00  0.00000000E+00
  0.00000000E+00  0.00000000E+00  0.00000000E+00
  0.00000000E+00  0.00000000E+00  0.00000000E+00
  0.00000000E+00  0.00000000E+00  0.00000000E+00
  0.00000000E+00  0.00000000E+00  0.00000000E+00
  0.00000000E+00  0.00000000E+00  0.00000000E+00
  0.00000000E+00  0.00000000E+00  0.00000000E+00
  0.00000000E+00  0.00000000E+00  0.00000000E+00
  0.00000000E+00  0.00000000E+00  0.00000000E+00
  0.00000000E+00  0.00000000E+00  0.00000000E+00
  0.00000000E+00  0.00000000E+00  0.00000000E+00
  0.00000000E+00  0.00000000E+00  0.00000000E+00
  0.00000000E+00  0.00000000E+00  0.00000000E+00
  0.00000000E+00  0.00000000E+00  0.00000000E+00
  0.00000000E+00  0.00000000E+00  0.00000000E+00
  0.00000000E+00  0.00000000E+00  0.00000000E+00
  0.00000000E+00  0.00000000E+00  0.00000000E+00
  0.00000000E+00  0.00000000E+00  0.00000000E+00
  0.00000000E+00  0.00000000E+00  0.00000000E+00
  0.00000000E+00  0.00000000E+00  0.00000000E+00
  0.00000000E+00  0.00000000E+00  0.00000000E+00
  0.00000000E+00  0.00000000E+00  0.00000000E+00
  0.00000000E+00  0.00000000E+00  0.00000000E+00
  0.00000000E+00  0.00000000E+00  0.00000000E+00
  0.00000000E+00  0.00000000E+00  0.00000000E+00
  0.00000000E+00  0.00000000E+00  0.00000000E+00
  0.00000000E+00  0.00000000E+00  0.00000000E+00
  0.00000000E+00  0.00000000E+00  0.00000000E+00
  0.00000000E+00  0.00000000E+00  0.00000000E+00
  0.00000000E+00  0.00000000E+00  0.00000000E+00
  0.00000000E+00  0.00000000E+00  0.00000000E+00
  0.00000000E+00  0.00000000E+00  0.00000000E+00
  0.00000000E+00  0.00000000E+00  0.00000000E+00
  0.00000000E+00  0.00000000E+00  0.00000000E+00
  0.00000000E+00  0.00000000E+00  0.00000000E+00
  0.00000000E+00  0.00000000E+00  0.00000000E+00
  0.00000000E+00  0.00000000E+00  0.00000000E+00
  0.00000000E+00  0.00000000E+00  0.00000000E+00
  0.00000000E+00  0.00000000E+00  0.00000000E+00
  0.00000000E+00  0.00000000E+00  0.00000000E+00
  0.00000000E+00  0.00000000E+00  0.00000000E+00
  0.00000000E+00  0.00000000E+00  0.00000000E+00
  0.00000000E+00  0.00000000E+00  0.00000000E+00
  0.00000000E+00  0.00000000E+00  0.00000000E+00
  0.00000000E+00  0.00000000E+00  0.00000000E+00
  0.00000000E+00  0.00000000E+00  0.00000000E+00
  0.00000000E+00  0.00000000E+00  0.00000000E+00
  0.00000000E+00  0.00000000E+00  0.00000000E+00
  0.00000000E+00  0.00000000E+00  0.00000000E+00
  0.00000000E+00  0.00000000E+00  0.00000000E+00
  0.00000000E+00  0.00000000E+00  0.00000000E+00
  0.00000000E+00  0.00000000E+00  0.00000000E+00
