Fe16 Cu16 S32
1.0
10.507532 0.192470 0.000000
0.192470 10.507532 0.000000
0.000000 0.000000 10.420033
S Cu Fe
32 16 16
direct
0.126125 0.125208 0.122993 S
0.626125 0.125208 0.122993 S
0.126125 0.625208 0.122993 S
0.626125 0.625208 0.122993 S
0.373875 0.374792 0.122993 S
0.873875 0.374792 0.122993 S
0.373875 0.874792 0.122993 S
0.873875 0.874792 0.122993 S
0.124792 0.373875 0.872993 S
0.624792 0.373875 0.872993 S
0.124792 0.873875 0.872993 S
0.624792 0.873875 0.872993 S
0.375208 0.126125 0.872993 S
0.875208 0.126125 0.872993 S
0.375208 0.626125 0.872993 S
0.875208 0.626125 0.872993 S
0.123875 0.124792 0.622993 S
0.623875 0.124792 0.622993 S
0.123875 0.624792 0.622993 S
0.623875 0.624792 0.622993 S
0.376125 0.375208 0.622993 S
0.876125 0.375208 0.622993 S
0.376125 0.875208 0.622993 S
0.876125 0.875208 0.622993 S
0.374792 0.123875 0.372993 S
0.874792 0.123875 0.372993 S
0.374792 0.623875 0.372993 S
0.874792 0.623875 0.372993 S
0.125208 0.376125 0.372993 S
0.625208 0.376125 0.372993 S
0.125208 0.876125 0.372993 S
0.625208 0.876125 0.372993 S
0.000000 0.000000 0.501741 Cu
0.500000 0.000000 0.501741 Cu
0.000000 0.500000 0.501741 Cu
0.500000 0.500000 0.501741 Cu
0.250000 0.000000 0.251741 Cu
0.750000 0.000000 0.251741 Cu
0.250000 0.500000 0.251741 Cu
0.750000 0.500000 0.251741 Cu
0.250000 0.250000 0.001741 Cu
0.750000 0.250000 0.001741 Cu
0.250000 0.750000 0.001741 Cu
0.750000 0.750000 0.001741 Cu
0.000000 0.250000 0.751741 Cu
0.500000 0.250000 0.751741 Cu
0.000000 0.750000 0.751741 Cu
0.500000 0.750000 0.751741 Cu
0.000000 0.000000 0.002273 Fe
0.500000 0.000000 0.002273 Fe
0.000000 0.500000 0.002273 Fe
0.500000 0.500000 0.002273 Fe
0.250000 0.000000 0.752273 Fe
0.750000 0.000000 0.752273 Fe
0.250000 0.500000 0.752273 Fe
0.750000 0.500000 0.752273 Fe
0.250000 0.250000 0.502273 Fe
0.750000 0.250000 0.502273 Fe
0.250000 0.750000 0.502273 Fe
0.750000 0.750000 0.502273 Fe
0.000000 0.250000 0.252273 Fe
0.500000 0.250000 0.252273 Fe
0.000000 0.750000 0.252273 Fe
0.500000 0.750000 0.252273 Fe
