Fe16 Cu16 S32                           
   1.00000000000000     
    10.5039300000000004    0.2749570000000000    0.0000000000000000
     0.2749570000000000   10.5039300000000004    0.0000000000000000
     0.0000000000000000    0.0000000000000000   10.4260901958804393
   S    Cu   Fe
    32    16    16
Direct
  0.1261396777670498  0.1253332941490086  0.1220804623212572
  0.6261396777670498  0.1253332941490086  0.1220804623212572
  0.1261396777670498  0.6253332941490086  0.1220804623212572
  0.6261396777670498  0.6253332941490086  0.1220804623212572
  0.3738603222329502  0.3746667058509914  0.1220804623212572
  0.8738603222329502  0.3746667058509914  0.1220804623212572
  0.3738603222329502  0.8746667058509914  0.1220804623212572
  0.8738603222329502  0.8746667058509914  0.1220804623212572
  0.1246667058509914  0.3738603222329502  0.8720804623212501
  0.6246667058509914  0.3738603222329502  0.8720804623212501
  0.1246667058509914  0.8738603222329502  0.8720804623212501
  0.6246667058509914  0.8738603222329502  0.8720804623212501
  0.3753332941490086  0.1261396777670498  0.8720804623212501
  0.8753332941490086  0.1261396777670498  0.8720804623212501
  0.3753332941490086  0.6261396777670498  0.8720804623212501
  0.8753332941490086  0.6261396777670498  0.8720804623212501
  0.1238603222329502  0.1246667058509914  0.6220804623212501
  0.6238603222329502  0.1246667058509914  0.6220804623212501
  0.1238603222329502  0.6246667058509914  0.6220804623212501
  0.6238603222329502  0.6246667058509914  0.6220804623212501
  0.3761396777670498  0.3753332941490086  0.6220804623212501
  0.8761396777670498  0.3753332941490086  0.6220804623212501
  0.3761396777670498  0.8753332941490086  0.6220804623212501
  0.8761396777670498  0.8753332941490086  0.6220804623212501
  0.3746667058509914  0.1238603222329502  0.3720804623212572
  0.8746667058509914  0.1238603222329502  0.3720804623212572
  0.3746667058509914  0.6238603222329502  0.3720804623212572
  0.8746667058509914  0.6238603222329502  0.3720804623212572
  0.1253332941490086  0.3761396777670498  0.3720804623212572
  0.6253332941490086  0.3761396777670498  0.3720804623212572
  0.1253332941490086  0.8761396777670498  0.3720804623212572
  0.6253332941490086  0.8761396777670498  0.3720804623212572
  0.0000000000000000  0.0000000000000000  0.5024868424787670
  0.5000000000000000  0.0000000000000000  0.5024868424787670
  0.0000000000000000  0.5000000000000000  0.5024868424787670
  0.5000000000000000  0.5000000000000000  0.5024868424787670
  0.2500000000000000  0.0000000000000000  0.2524868424787599
  0.7500000000000000  0.0000000000000000  0.2524868424787599
  0.2500000000000000  0.5000000000000000  0.2524868424787599
  0.7500000000000000  0.5000000000000000  0.2524868424787599
  0.2500000000000000  0.2500000000000000  0.0024868424787670
  0.7500000000000000  0.2500000000000000  0.0024868424787670
  0.2500000000000000  0.7500000000000000  0.0024868424787670
  0.7500000000000000  0.7500000000000000  0.0024868424787670
  0.0000000000000000  0.2500000000000000  0.7524868424787670
  0.5000000000000000  0.2500000000000000  0.7524868424787670
  0.0000000000000000  0.7500000000000000  0.7524868424787670
  0.5000000000000000  0.7500000000000000  0.7524868424787670
  0.0000000000000000  0.0000000000000000  0.0033522328787257
  0.5000000000000000  0.0000000000000000  0.0033522328787257
  0.0000000000000000  0.5000000000000000  0.0033522328787257
  0.5000000000000000  0.5000000000000000  0.0033522328787257
  0.2500000000000000  0.0000000000000000  0.7533522328787257
  0.7500000000000000  0.0000000000000000  0.7533522328787257
  0.2500000000000000  0.5000000000000000  0.7533522328787257
  0.7500000000000000  0.5000000000000000  0.7533522328787257
  0.2500000000000000  0.2500000000000000  0.5033522328787257
  0.7500000000000000  0.2500000000000000  0.5033522328787257
  0.2500000000000000  0.7500000000000000  0.5033522328787257
  0.7500000000000000  0.7500000000000000  0.5033522328787257
  0.0000000000000000  0.2500000000000000  0.2533522328787257
  0.5000000000000000  0.2500000000000000  0.2533522328787257
  0.0000000000000000  0.7500000000000000  0.2533522328787257
  0.5000000000000000  0.7500000000000000  0.2533522328787257
 
  0.00000000E+00  0.00000000E+00  0.00000000E+00
  0.00000000E+00  0.00000000E+00  0.00000000E+00
  0.00000000E+00  0.00000000E+00  0.00000000E+00
  0.00000000E+00  0.00000000E+00  0.00000000E+00
  0.00000000E+00  0.00000000E+00  0.00000000E+00
  0.00000000E+00  0.00000000E+00  0.00000000E+00
  0.00000000E+00  0.00000000E+00  0.00000000E+00
  0.00000000E+00  0.00000000E+00  0.00000000E+00
  0.00000000E+00  0.00000000E+00  0.00000000E+00
  0.00000000E+00  0.00000000E+00  0.00000000E+00
  0.00000000E+00  0.00000000E+00  0.00000000E+00
  0.00000000E+00  0.00000000E+00  0.00000000E+00
  0.00000000E+00  0.00000000E+00  0.00000000E+00
  0.00000000E+00  0.00000000E+00  0.00000000E+00
  0.00000000E+00  0.00000000E+00  0.00000000E+00
  0.00000000E+00  0.00000000E+00  0.00000000E+00
  0.00000000E+00  0.00000000E+00  0.00000000E+00
  0.00000000E+00  0.00000000E+00  0.00000000E+00
  0.00000000E+00  0.00000000E+00  0.00000000E+00
  0.00000000E+00  0.00000000E+00  0.00000000E+00
  0.00000000E+00  0.00000000E+00  0.00000000E+00
  0.00000000E+00  0.00000000E+00  0.00000000E+00
  0.00000000E+00  0.00000000E+00  0.00000000E+00
  0.00000000E+00  0.00000000E+00  0.00000000E+00
  0.00000000E+00  0.00000000E+00  0.00000000E+00
  0.00000000E+00  0.00000000E+00  0.00000000E+00
  0.00000000E+00  0.00000000E+00  0.00000000E+00
  0.00000000E+00  0.00000000E+00  0.00000000E+00
  0.00000000E+00  0.00000000E+00  0.00000000E+00
  0.00000000E+00  0.00000000E+00  0.00000000E+00
  0.00000000E+00  0.00000000E+00  0.00000000E+00
  0.00000000E+00  0.00000000E+00  0.00000000E+00
  0.00000000E+00  0.00000000E+00  0.00000000E+00
  0.00000000E+00  0.00000000E+00  0.00000000E+00
  0.00000000E+00  0.00000000E+00  0.00000000E+00
  0.00000000E+00  0.00000000E+00  0.00000000E+00
  0.00000000E+00  0.00000000E+00  0.00000000E+00
  0.00000000E+00  0.00000000E+00  0.00000000E+00
  0.00000000E+00  0.00000000E+00  0.00000000E+00
  0.00000000E+00  0.00000000E+00  0.00000000E+00
  0.00000000E+00  0.00000000E+00  0.00000000E+00
  0.00000000E+00  0.00000000E+00  0.00000000E+00
  0.00000000E+00  0.00000000E+00  0.00000000E+00
  0.00000000E+00  0.00000000E+00  0.00000000E+00
  0.00000000E+00  0.00000000E+00  0.00000000E+00
  0.00000000E+00  0.00000000E+00  0.00000000E+00
  0.00000000E+00  0.00000000E+00  0.00000000E+00
  0.00000000E+00  0.00000000E+00  0.00000000E+00
  0.00000000E+00  0.00000000E+00  0.00000000E+00
  0.00000000E+00  0.00000000E+00  0.00000000E+00
  0.00000000E+00  0.00000000E+00  0.00000000E+00
  0.00000000E+00  0.00000000E+00  0.00000000E+00
  0.00000000E+00  0.00000000E+00  0.00000000E+00
  0.00000000E+00  0.00000000E+00  0.00000000E+00
  0.00000000E+00  0.00000000E+00  0.00000000E+00
  0.00000000E+00  0.00000000E+00  0.00000000E+00
  0.00000000E+00  0.00000000E+00  0.00000000E+00
  0.00000000E+00  0.00000000E+00  0.00000000E+00
  0.00000000E+00  0.00000000E+00  0.00000000E+00
  0.00000000E+00  0.00000000E+00  0.00000000E+00
  0.00000000E+00  0.00000000E+00  0.00000000E+00
  0.00000000E+00  0.00000000E+00  0.00000000E+00
  0.00000000E+00  0.00000000E+00  0.00000000E+00
  0.00000000E+00  0.00000000E+00  0.00000000E+00
