Fe16 Cu16 S32
1.0
10.513371 0.000000 0.146800
0.000000 10.517846 0.000000
0.145333 0.000000 10.408315
S Cu Fe
32 16 16
direct
0.126195 0.123260 0.125253 S
0.626195 0.123260 0.125253 S
0.126195 0.623260 0.125253 S
0.626195 0.623260 0.125253 S
0.373805 0.373260 0.124747 S
0.873805 0.373260 0.124747 S
0.373805 0.873260 0.124747 S
0.873805 0.873260 0.124747 S
0.125000 0.372667 0.875000 S
0.625000 0.372667 0.875000 S
0.125000 0.872667 0.875000 S
0.625000 0.872667 0.875000 S
0.375000 0.124870 0.875000 S
0.875000 0.124870 0.875000 S
0.375000 0.624870 0.875000 S
0.875000 0.624870 0.875000 S
0.123805 0.123260 0.624747 S
0.623805 0.123260 0.624747 S
0.123805 0.623260 0.624747 S
0.623805 0.623260 0.624747 S
0.376195 0.373260 0.625253 S
0.876195 0.373260 0.625253 S
0.376195 0.873260 0.625253 S
0.876195 0.873260 0.625253 S
0.375000 0.122667 0.375000 S
0.875000 0.122667 0.375000 S
0.375000 0.622667 0.375000 S
0.875000 0.622667 0.375000 S
0.125000 0.374870 0.375000 S
0.625000 0.374870 0.375000 S
0.125000 0.874870 0.375000 S
0.625000 0.874870 0.375000 S
-0.000514 0.001534 0.500004 Cu
0.499486 0.001534 0.500004 Cu
-0.000514 0.501534 0.500004 Cu
0.499486 0.501534 0.500004 Cu
0.250514 0.001534 0.249996 Cu
0.750514 0.001534 0.249996 Cu
0.250514 0.501534 0.249996 Cu
0.750514 0.501534 0.249996 Cu
0.249486 0.251534 0.000004 Cu
0.749486 0.251534 0.000004 Cu
0.249486 0.751534 0.000004 Cu
0.749486 0.751534 0.000004 Cu
0.000514 0.251534 0.749996 Cu
0.500514 0.251534 0.749996 Cu
0.000514 0.751534 0.749996 Cu
0.500514 0.751534 0.749996 Cu
-0.000281 0.001437 0.000101 Fe
0.499719 0.001437 0.000101 Fe
-0.000281 0.501437 0.000101 Fe
0.499719 0.501437 0.000101 Fe
0.250281 0.001437 0.749899 Fe
0.750281 0.001437 0.749899 Fe
0.250281 0.501437 0.749899 Fe
0.750281 0.501437 0.749899 Fe
0.249719 0.251437 0.500101 Fe
0.749719 0.251437 0.500101 Fe
0.249719 0.751437 0.500101 Fe
0.749719 0.751437 0.500101 Fe
0.000281 0.251437 0.249899 Fe
0.500281 0.251437 0.249899 Fe
0.000281 0.751437 0.249899 Fe
0.500281 0.751437 0.249899 Fe
