Fe16 Cu16 S32
1.0
10.513052 0.000000 0.110072
0.000000 10.517934 0.000000
0.108972 0.000000 10.408000
S Cu Fe
32 16 16
direct
0.126207 0.123661 0.125201 S
0.626207 0.123661 0.125201 S
0.126207 0.623661 0.125201 S
0.626207 0.623661 0.125201 S
0.373793 0.373661 0.124799 S
0.873793 0.373661 0.124799 S
0.373793 0.873661 0.124799 S
0.873793 0.873661 0.124799 S
0.125000 0.373044 0.875000 S
0.625000 0.373044 0.875000 S
0.125000 0.873044 0.875000 S
0.625000 0.873044 0.875000 S
0.375000 0.125221 0.875000 S
0.875000 0.125221 0.875000 S
0.375000 0.625221 0.875000 S
0.875000 0.625221 0.875000 S
0.123793 0.123661 0.624799 S
0.623793 0.123661 0.624799 S
0.123793 0.623661 0.624799 S
0.623793 0.623661 0.624799 S
0.376207 0.373661 0.625201 S
0.876207 0.373661 0.625201 S
0.376207 0.873661 0.625201 S
0.876207 0.873661 0.625201 S
0.375000 0.123044 0.375000 S
0.875000 0.123044 0.375000 S
0.375000 0.623044 0.375000 S
0.875000 0.623044 0.375000 S
0.125000 0.375221 0.375000 S
0.625000 0.375221 0.375000 S
0.125000 0.875221 0.375000 S
0.625000 0.875221 0.375000 S
-0.000466 0.001123 0.499999 Cu
0.499534 0.001123 0.499999 Cu
-0.000466 0.501123 0.499999 Cu
0.499534 0.501123 0.499999 Cu
0.250466 0.001123 0.250001 Cu
0.750466 0.001123 0.250001 Cu
0.250466 0.501123 0.250001 Cu
0.750466 0.501123 0.250001 Cu
0.249534 0.251123 -0.000001 Cu
0.749534 0.251123 -0.000001 Cu
0.249534 0.751123 -0.000001 Cu
0.749534 0.751123 -0.000001 Cu
0.000466 0.251123 0.750001 Cu
0.500466 0.251123 0.750001 Cu
0.000466 0.751123 0.750001 Cu
0.500466 0.751123 0.750001 Cu
-0.000264 0.001084 0.000133 Fe
0.499736 0.001084 0.000133 Fe
-0.000264 0.501084 0.000133 Fe
0.499736 0.501084 0.000133 Fe
0.250264 0.001084 0.749867 Fe
0.750264 0.001084 0.749867 Fe
0.250264 0.501084 0.749867 Fe
0.750264 0.501084 0.749867 Fe
0.249736 0.251084 0.500133 Fe
0.749736 0.251084 0.500133 Fe
0.249736 0.751084 0.500133 Fe
0.749736 0.751084 0.500133 Fe
0.000264 0.251084 0.249867 Fe
0.500264 0.251084 0.249867 Fe
0.000264 0.751084 0.249867 Fe
0.500264 0.751084 0.249867 Fe
