Fe16 Cu16 S32
1.0
10.493526 0.513253 0.000000
0.513253 10.493526 0.000000
0.000000 0.000000 10.434464
S Cu Fe
32 16 16
direct
0.126060 0.125559 0.119684 S
0.626060 0.125559 0.119684 S
0.126060 0.625559 0.119684 S
0.626060 0.625559 0.119684 S
0.373940 0.374441 0.119684 S
0.873940 0.374441 0.119684 S
0.373940 0.874441 0.119684 S
0.873940 0.874441 0.119684 S
0.124441 0.373940 0.869684 S
0.624441 0.373940 0.869684 S
0.124441 0.873940 0.869684 S
0.624441 0.873940 0.869684 S
0.375559 0.126060 0.869684 S
0.875559 0.126060 0.869684 S
0.375559 0.626060 0.869684 S
0.875559 0.626060 0.869684 S
0.123940 0.124441 0.619684 S
0.623940 0.124441 0.619684 S
0.123940 0.624441 0.619684 S
0.623940 0.624441 0.619684 S
0.376060 0.375559 0.619684 S
0.876060 0.375559 0.619684 S
0.376060 0.875559 0.619684 S
0.876060 0.875559 0.619684 S
0.374441 0.123940 0.369684 S
0.874441 0.123940 0.369684 S
0.374441 0.623940 0.369684 S
0.874441 0.623940 0.369684 S
0.125559 0.376060 0.369684 S
0.625559 0.376060 0.369684 S
0.125559 0.876060 0.369684 S
0.625559 0.876060 0.369684 S
0.000000 0.000000 0.504590 Cu
0.500000 0.000000 0.504590 Cu
0.000000 0.500000 0.504590 Cu
0.500000 0.500000 0.504590 Cu
0.250000 0.000000 0.254590 Cu
0.750000 0.000000 0.254590 Cu
0.250000 0.500000 0.254590 Cu
0.750000 0.500000 0.254590 Cu
0.250000 0.250000 0.004590 Cu
0.750000 0.250000 0.004590 Cu
0.250000 0.750000 0.004590 Cu
0.750000 0.750000 0.004590 Cu
0.000000 0.250000 0.754590 Cu
0.500000 0.250000 0.754590 Cu
0.000000 0.750000 0.754590 Cu
0.500000 0.750000 0.754590 Cu
0.000000 0.000000 0.006042 Fe
0.500000 0.000000 0.006042 Fe
0.000000 0.500000 0.006042 Fe
0.500000 0.500000 0.006042 Fe
0.250000 0.000000 0.756042 Fe
0.750000 0.000000 0.756042 Fe
0.250000 0.500000 0.756042 Fe
0.750000 0.500000 0.756042 Fe
0.250000 0.250000 0.506042 Fe
0.750000 0.250000 0.506042 Fe
0.250000 0.750000 0.506042 Fe
0.750000 0.750000 0.506042 Fe
0.000000 0.250000 0.256042 Fe
0.500000 0.250000 0.256042 Fe
0.000000 0.750000 0.256042 Fe
0.500000 0.750000 0.256042 Fe
