sm_isp_SD0310437-standardized_unitcell  
   1.00000000000000     
     5.0484342292993238    0.0000000000000000    0.0000000000000000
     0.0000000000000000    5.0484342292993238    0.0000000000000000
     0.0000000000000000    0.0000000000000000   11.0336232148379310
   S    Cu   Fe
     8     4     4
Direct
  0.2532661702269507  0.2500000000000000  0.1250000000000000
  0.7467338597730446  0.7500000000000000  0.1250000000000000
  0.2500000000000000  0.7467338597730446  0.8750000000000000
  0.7500000000000000  0.2532661702269507  0.8750000000000000
  0.2467338297730421  0.2500000000000000  0.6250000000000000
  0.7532661402269554  0.7500000000000000  0.6250000000000000
  0.7500000000000000  0.2467338297730421  0.3750000000000000
  0.2500000000000000  0.7532661402269554  0.3750000000000000
  0.0000000000000000  0.0000000000000000  0.5000000000000000
  0.5000000000000000  0.0000000000000000  0.2500000000000000
  0.5000000000000000  0.5000000000000000  0.0000000000000000
  0.0000000000000000  0.5000000000000000  0.7500000000000000
  0.0000000000000000  0.0000000000000000  0.0000000000000000
  0.5000000000000000  0.0000000000000000  0.7500000000000000
  0.5000000000000000  0.5000000000000000  0.5000000000000000
  0.0000000000000000  0.5000000000000000  0.2500000000000000
 
  0.00000000E+00  0.00000000E+00  0.00000000E+00
  0.00000000E+00  0.00000000E+00  0.00000000E+00
  0.00000000E+00  0.00000000E+00  0.00000000E+00
  0.00000000E+00  0.00000000E+00  0.00000000E+00
  0.00000000E+00  0.00000000E+00  0.00000000E+00
  0.00000000E+00  0.00000000E+00  0.00000000E+00
  0.00000000E+00  0.00000000E+00  0.00000000E+00
  0.00000000E+00  0.00000000E+00  0.00000000E+00
  0.00000000E+00  0.00000000E+00  0.00000000E+00
  0.00000000E+00  0.00000000E+00  0.00000000E+00
  0.00000000E+00  0.00000000E+00  0.00000000E+00
  0.00000000E+00  0.00000000E+00  0.00000000E+00
  0.00000000E+00  0.00000000E+00  0.00000000E+00
  0.00000000E+00  0.00000000E+00  0.00000000E+00
  0.00000000E+00  0.00000000E+00  0.00000000E+00
  0.00000000E+00  0.00000000E+00  0.00000000E+00
