Fe16 Cu16 S32
1.0
10.510049 0.000000 0.192595
0.000000 10.520279 0.000000
0.190670 0.000000 10.405027
S Cu Fe
32 16 16
direct
0.126260 0.122649 0.125348 S
0.626260 0.122649 0.125348 S
0.126260 0.622649 0.125348 S
0.626260 0.622649 0.125348 S
0.373740 0.372649 0.124652 S
0.873740 0.372649 0.124652 S
0.373740 0.872649 0.124652 S
0.873740 0.872649 0.124652 S
0.125000 0.372494 0.875000 S
0.625000 0.372494 0.875000 S
0.125000 0.872494 0.875000 S
0.625000 0.872494 0.875000 S
0.375000 0.124531 0.875000 S
0.875000 0.124531 0.875000 S
0.375000 0.624531 0.875000 S
0.875000 0.624531 0.875000 S
0.123740 0.122649 0.624652 S
0.623740 0.122649 0.624652 S
0.123740 0.622649 0.624652 S
0.623740 0.622649 0.624652 S
0.376260 0.372649 0.625348 S
0.876260 0.372649 0.625348 S
0.376260 0.872649 0.625348 S
0.876260 0.872649 0.625348 S
0.375000 0.122494 0.375000 S
0.875000 0.122494 0.375000 S
0.375000 0.622494 0.375000 S
0.875000 0.622494 0.375000 S
0.125000 0.374531 0.375000 S
0.625000 0.374531 0.375000 S
0.125000 0.874531 0.375000 S
0.625000 0.874531 0.375000 S
-0.000852 0.001946 0.500004 Cu
0.499148 0.001946 0.500004 Cu
-0.000852 0.501946 0.500004 Cu
0.499148 0.501946 0.500004 Cu
0.250852 0.001946 0.249996 Cu
0.750852 0.001946 0.249996 Cu
0.250852 0.501946 0.249996 Cu
0.750852 0.501946 0.249996 Cu
0.249148 0.251946 0.000004 Cu
0.749148 0.251946 0.000004 Cu
0.249148 0.751946 0.000004 Cu
0.749148 0.751946 0.000004 Cu
0.000852 0.251946 0.749996 Cu
0.500852 0.251946 0.749996 Cu
0.000852 0.751946 0.749996 Cu
0.500852 0.751946 0.749996 Cu
-0.000495 0.001893 0.000281 Fe
0.499505 0.001893 0.000281 Fe
-0.000495 0.501893 0.000281 Fe
0.499505 0.501893 0.000281 Fe
0.250495 0.001893 0.749719 Fe
0.750495 0.001893 0.749719 Fe
0.250495 0.501893 0.749719 Fe
0.750495 0.501893 0.749719 Fe
0.249505 0.251893 0.500281 Fe
0.749505 0.251893 0.500281 Fe
0.249505 0.751893 0.500281 Fe
0.749505 0.751893 0.500281 Fe
0.000495 0.251893 0.249719 Fe
0.500495 0.251893 0.249719 Fe
0.000495 0.751893 0.249719 Fe
0.500495 0.751893 0.249719 Fe
