Fe16 Cu16 S32
1.0
10.497927 0.412436 0.000000
0.412436 10.497927 0.000000
0.000000 0.000000 10.429386
S Cu Fe
32 16 16
direct
0.126074 0.125439 0.120757 S
0.626074 0.125439 0.120757 S
0.126074 0.625439 0.120757 S
0.626074 0.625439 0.120757 S
0.373926 0.374561 0.120757 S
0.873926 0.374561 0.120757 S
0.373926 0.874561 0.120757 S
0.873926 0.874561 0.120757 S
0.124561 0.373926 0.870757 S
0.624561 0.373926 0.870757 S
0.124561 0.873926 0.870757 S
0.624561 0.873926 0.870757 S
0.375439 0.126074 0.870757 S
0.875439 0.126074 0.870757 S
0.375439 0.626074 0.870757 S
0.875439 0.626074 0.870757 S
0.123926 0.124561 0.620757 S
0.623926 0.124561 0.620757 S
0.123926 0.624561 0.620757 S
0.623926 0.624561 0.620757 S
0.376074 0.375439 0.620757 S
0.876074 0.375439 0.620757 S
0.376074 0.875439 0.620757 S
0.876074 0.875439 0.620757 S
0.374561 0.123926 0.370757 S
0.874561 0.123926 0.370757 S
0.374561 0.623926 0.370757 S
0.874561 0.623926 0.370757 S
0.125439 0.376074 0.370757 S
0.625439 0.376074 0.370757 S
0.125439 0.876074 0.370757 S
0.625439 0.876074 0.370757 S
0.000000 0.000000 0.503667 Cu
0.500000 0.000000 0.503667 Cu
0.000000 0.500000 0.503667 Cu
0.500000 0.500000 0.503667 Cu
0.250000 0.000000 0.253667 Cu
0.750000 0.000000 0.253667 Cu
0.250000 0.500000 0.253667 Cu
0.750000 0.500000 0.253667 Cu
0.250000 0.250000 0.003667 Cu
0.750000 0.250000 0.003667 Cu
0.250000 0.750000 0.003667 Cu
0.750000 0.750000 0.003667 Cu
0.000000 0.250000 0.753667 Cu
0.500000 0.250000 0.753667 Cu
0.000000 0.750000 0.753667 Cu
0.500000 0.750000 0.753667 Cu
0.000000 0.000000 0.004818 Fe
0.500000 0.000000 0.004818 Fe
0.000000 0.500000 0.004818 Fe
0.500000 0.500000 0.004818 Fe
0.250000 0.000000 0.754818 Fe
0.750000 0.000000 0.754818 Fe
0.250000 0.500000 0.754818 Fe
0.750000 0.500000 0.754818 Fe
0.250000 0.250000 0.504818 Fe
0.750000 0.250000 0.504818 Fe
0.250000 0.750000 0.504818 Fe
0.750000 0.750000 0.504818 Fe
0.000000 0.250000 0.254818 Fe
0.500000 0.250000 0.254818 Fe
0.000000 0.750000 0.254818 Fe
0.500000 0.750000 0.254818 Fe
