sm_isp_SD0310437-standardized_unitcell  
   1.00000000000000     
     5.1536099424097266    0.0000000000000000    0.0000000000000000
     0.0000000000000000    5.4036873481214922    0.0000000000000000
     0.0000000000000000    0.0000000000000000   10.2001680494206628
   S    Cu   Fe
     8     4     4
Direct
  0.2522382860546344  0.2500000000000000  0.1250000000000000
  0.7477617439453610  0.7500000000000000  0.1250000000000000
  0.2500000000000000  0.7473589814104074  0.8750000000000000
  0.7500000000000000  0.2526410485895809  0.8750000000000000
  0.2477617139453585  0.2500000000000000  0.6250000000000000
  0.7522382560546390  0.7500000000000000  0.6250000000000000
  0.7500000000000000  0.2473589514104049  0.3750000000000000
  0.2500000000000000  0.7526410185895926  0.3750000000000000
  0.0000000000000000  0.0000000000000000  0.5004092761919026
  0.5000000000000000  0.0000000000000000  0.2495907238081116
  0.5000000000000000  0.5000000000000000  0.0004092761918884
  0.0000000000000000  0.5000000000000000  0.7495907238080974
  0.0000000000000000  0.0000000000000000  0.9999869448573122
  0.5000000000000000  0.0000000000000000  0.7500130551426878
  0.5000000000000000  0.5000000000000000  0.4999869448573193
  0.0000000000000000  0.5000000000000000  0.2500130551426878
 
  0.00000000E+00  0.00000000E+00  0.00000000E+00
  0.00000000E+00  0.00000000E+00  0.00000000E+00
  0.00000000E+00  0.00000000E+00  0.00000000E+00
  0.00000000E+00  0.00000000E+00  0.00000000E+00
  0.00000000E+00  0.00000000E+00  0.00000000E+00
  0.00000000E+00  0.00000000E+00  0.00000000E+00
  0.00000000E+00  0.00000000E+00  0.00000000E+00
  0.00000000E+00  0.00000000E+00  0.00000000E+00
  0.00000000E+00  0.00000000E+00  0.00000000E+00
  0.00000000E+00  0.00000000E+00  0.00000000E+00
  0.00000000E+00  0.00000000E+00  0.00000000E+00
  0.00000000E+00  0.00000000E+00  0.00000000E+00
  0.00000000E+00  0.00000000E+00  0.00000000E+00
  0.00000000E+00  0.00000000E+00  0.00000000E+00
  0.00000000E+00  0.00000000E+00  0.00000000E+00
  0.00000000E+00  0.00000000E+00  0.00000000E+00
