Fe16 Cu16 S32
1.0
10.496327 0.449097 0.000000
0.449097 10.496327 0.000000
0.000000 0.000000 10.432273
S Cu Fe
32 16 16
direct
0.126083 0.125486 0.120317 S
0.626083 0.125486 0.120317 S
0.126083 0.625486 0.120317 S
0.626083 0.625486 0.120317 S
0.373917 0.374514 0.120317 S
0.873917 0.374514 0.120317 S
0.373917 0.874514 0.120317 S
0.873917 0.874514 0.120317 S
0.124514 0.373917 0.870317 S
0.624514 0.373917 0.870317 S
0.124514 0.873917 0.870317 S
0.624514 0.873917 0.870317 S
0.375486 0.126083 0.870317 S
0.875486 0.126083 0.870317 S
0.375486 0.626083 0.870317 S
0.875486 0.626083 0.870317 S
0.123917 0.124514 0.620317 S
0.623917 0.124514 0.620317 S
0.123917 0.624514 0.620317 S
0.623917 0.624514 0.620317 S
0.376083 0.375486 0.620317 S
0.876083 0.375486 0.620317 S
0.376083 0.875486 0.620317 S
0.876083 0.875486 0.620317 S
0.374514 0.123917 0.370317 S
0.874514 0.123917 0.370317 S
0.374514 0.623917 0.370317 S
0.874514 0.623917 0.370317 S
0.125486 0.376083 0.370317 S
0.625486 0.376083 0.370317 S
0.125486 0.876083 0.370317 S
0.625486 0.876083 0.370317 S
0.000000 0.000000 0.504062 Cu
0.500000 0.000000 0.504062 Cu
0.000000 0.500000 0.504062 Cu
0.500000 0.500000 0.504062 Cu
0.250000 0.000000 0.254062 Cu
0.750000 0.000000 0.254062 Cu
0.250000 0.500000 0.254062 Cu
0.750000 0.500000 0.254062 Cu
0.250000 0.250000 0.004062 Cu
0.750000 0.250000 0.004062 Cu
0.250000 0.750000 0.004062 Cu
0.750000 0.750000 0.004062 Cu
0.000000 0.250000 0.754062 Cu
0.500000 0.250000 0.754062 Cu
0.000000 0.750000 0.754062 Cu
0.500000 0.750000 0.754062 Cu
0.000000 0.000000 0.005305 Fe
0.500000 0.000000 0.005305 Fe
0.000000 0.500000 0.005305 Fe
0.500000 0.500000 0.005305 Fe
0.250000 0.000000 0.755305 Fe
0.750000 0.000000 0.755305 Fe
0.250000 0.500000 0.755305 Fe
0.750000 0.500000 0.755305 Fe
0.250000 0.250000 0.505305 Fe
0.750000 0.250000 0.505305 Fe
0.250000 0.750000 0.505305 Fe
0.750000 0.750000 0.505305 Fe
0.000000 0.250000 0.255305 Fe
0.500000 0.250000 0.255305 Fe
0.000000 0.750000 0.255305 Fe
0.500000 0.750000 0.255305 Fe
