Fe16 Cu16 S32
1.0
10.511933 0.091652 0.000000
0.091652 10.511933 0.000000
0.000000 0.000000 10.416195
S Cu Fe
32 16 16
direct
0.126159 0.125102 0.124023 S
0.626159 0.125102 0.124023 S
0.126159 0.625102 0.124023 S
0.626159 0.625102 0.124023 S
0.373841 0.374898 0.124023 S
0.873841 0.374898 0.124023 S
0.373841 0.874898 0.124023 S
0.873841 0.874898 0.124023 S
0.124898 0.373841 0.874023 S
0.624898 0.373841 0.874023 S
0.124898 0.873841 0.874023 S
0.624898 0.873841 0.874023 S
0.375102 0.126159 0.874023 S
0.875102 0.126159 0.874023 S
0.375102 0.626159 0.874023 S
0.875102 0.626159 0.874023 S
0.123841 0.124898 0.624023 S
0.623841 0.124898 0.624023 S
0.123841 0.624898 0.624023 S
0.623841 0.624898 0.624023 S
0.376159 0.375102 0.624023 S
0.876159 0.375102 0.624023 S
0.376159 0.875102 0.624023 S
0.876159 0.875102 0.624023 S
0.374898 0.123841 0.374023 S
0.874898 0.123841 0.374023 S
0.374898 0.623841 0.374023 S
0.874898 0.623841 0.374023 S
0.125102 0.376159 0.374023 S
0.625102 0.376159 0.374023 S
0.125102 0.876159 0.374023 S
0.625102 0.876159 0.374023 S
0.000000 0.000000 0.500845 Cu
0.500000 0.000000 0.500845 Cu
0.000000 0.500000 0.500845 Cu
0.500000 0.500000 0.500845 Cu
0.250000 0.000000 0.250845 Cu
0.750000 0.000000 0.250845 Cu
0.250000 0.500000 0.250845 Cu
0.750000 0.500000 0.250845 Cu
0.250000 0.250000 0.000845 Cu
0.750000 0.250000 0.000845 Cu
0.250000 0.750000 0.000845 Cu
0.750000 0.750000 0.000845 Cu
0.000000 0.250000 0.750845 Cu
0.500000 0.250000 0.750845 Cu
0.000000 0.750000 0.750845 Cu
0.500000 0.750000 0.750845 Cu
0.000000 0.000000 0.001109 Fe
0.500000 0.000000 0.001109 Fe
0.000000 0.500000 0.001109 Fe
0.500000 0.500000 0.001109 Fe
0.250000 0.000000 0.751109 Fe
0.750000 0.000000 0.751109 Fe
0.250000 0.500000 0.751109 Fe
0.750000 0.500000 0.751109 Fe
0.250000 0.250000 0.501109 Fe
0.750000 0.250000 0.501109 Fe
0.250000 0.750000 0.501109 Fe
0.750000 0.750000 0.501109 Fe
0.000000 0.250000 0.251109 Fe
0.500000 0.250000 0.251109 Fe
0.000000 0.750000 0.251109 Fe
0.500000 0.750000 0.251109 Fe
