Fe16 Cu16 S32
1.0
10.496727 0.439931 0.000000
0.439931 10.496727 0.000000
0.000000 0.000000 10.432693
S Cu Fe
32 16 16
direct
0.126096 0.125471 0.120384 S
0.626096 0.125471 0.120384 S
0.126096 0.625471 0.120384 S
0.626096 0.625471 0.120384 S
0.373904 0.374529 0.120384 S
0.873904 0.374529 0.120384 S
0.373904 0.874529 0.120384 S
0.873904 0.874529 0.120384 S
0.124529 0.373904 0.870384 S
0.624529 0.373904 0.870384 S
0.124529 0.873904 0.870384 S
0.624529 0.873904 0.870384 S
0.375471 0.126096 0.870384 S
0.875471 0.126096 0.870384 S
0.375471 0.626096 0.870384 S
0.875471 0.626096 0.870384 S
0.123904 0.124529 0.620384 S
0.623904 0.124529 0.620384 S
0.123904 0.624529 0.620384 S
0.623904 0.624529 0.620384 S
0.376096 0.375471 0.620384 S
0.876096 0.375471 0.620384 S
0.376096 0.875471 0.620384 S
0.876096 0.875471 0.620384 S
0.374529 0.123904 0.370384 S
0.874529 0.123904 0.370384 S
0.374529 0.623904 0.370384 S
0.874529 0.623904 0.370384 S
0.125471 0.376096 0.370384 S
0.625471 0.376096 0.370384 S
0.125471 0.876096 0.370384 S
0.625471 0.876096 0.370384 S
0.000000 0.000000 0.504020 Cu
0.500000 0.000000 0.504020 Cu
0.000000 0.500000 0.504020 Cu
0.500000 0.500000 0.504020 Cu
0.250000 0.000000 0.254020 Cu
0.750000 0.000000 0.254020 Cu
0.250000 0.500000 0.254020 Cu
0.750000 0.500000 0.254020 Cu
0.250000 0.250000 0.004020 Cu
0.750000 0.250000 0.004020 Cu
0.250000 0.750000 0.004020 Cu
0.750000 0.750000 0.004020 Cu
0.000000 0.250000 0.754020 Cu
0.500000 0.250000 0.754020 Cu
0.000000 0.750000 0.754020 Cu
0.500000 0.750000 0.754020 Cu
0.000000 0.000000 0.005212 Fe
0.500000 0.000000 0.005212 Fe
0.000000 0.500000 0.005212 Fe
0.500000 0.500000 0.005212 Fe
0.250000 0.000000 0.755212 Fe
0.750000 0.000000 0.755212 Fe
0.250000 0.500000 0.755212 Fe
0.750000 0.500000 0.755212 Fe
0.250000 0.250000 0.505212 Fe
0.750000 0.250000 0.505212 Fe
0.250000 0.750000 0.505212 Fe
0.750000 0.750000 0.505212 Fe
0.000000 0.250000 0.255212 Fe
0.500000 0.250000 0.255212 Fe
0.000000 0.750000 0.255212 Fe
0.500000 0.750000 0.255212 Fe
