Fe16 Cu16 S32
1.0
10.499928 0.366610 0.000000
0.366610 10.499928 0.000000
0.000000 0.000000 10.427718
S Cu Fe
32 16 16
direct
0.126088 0.125399 0.121203 S
0.626088 0.125399 0.121203 S
0.126088 0.625399 0.121203 S
0.626088 0.625399 0.121203 S
0.373912 0.374601 0.121203 S
0.873912 0.374601 0.121203 S
0.373912 0.874601 0.121203 S
0.873912 0.874601 0.121203 S
0.124601 0.373912 0.871203 S
0.624601 0.373912 0.871203 S
0.124601 0.873912 0.871203 S
0.624601 0.873912 0.871203 S
0.375399 0.126088 0.871203 S
0.875399 0.126088 0.871203 S
0.375399 0.626088 0.871203 S
0.875399 0.626088 0.871203 S
0.123912 0.124601 0.621203 S
0.623912 0.124601 0.621203 S
0.123912 0.624601 0.621203 S
0.623912 0.624601 0.621203 S
0.376088 0.375399 0.621203 S
0.876088 0.375399 0.621203 S
0.376088 0.875399 0.621203 S
0.876088 0.875399 0.621203 S
0.374601 0.123912 0.371203 S
0.874601 0.123912 0.371203 S
0.374601 0.623912 0.371203 S
0.874601 0.623912 0.371203 S
0.125399 0.376088 0.371203 S
0.625399 0.376088 0.371203 S
0.125399 0.876088 0.371203 S
0.625399 0.876088 0.371203 S
0.000000 0.000000 0.503279 Cu
0.500000 0.000000 0.503279 Cu
0.000000 0.500000 0.503279 Cu
0.500000 0.500000 0.503279 Cu
0.250000 0.000000 0.253279 Cu
0.750000 0.000000 0.253279 Cu
0.250000 0.500000 0.253279 Cu
0.750000 0.500000 0.253279 Cu
0.250000 0.250000 0.003279 Cu
0.750000 0.250000 0.003279 Cu
0.250000 0.750000 0.003279 Cu
0.750000 0.750000 0.003279 Cu
0.000000 0.250000 0.753279 Cu
0.500000 0.250000 0.753279 Cu
0.000000 0.750000 0.753279 Cu
0.500000 0.750000 0.753279 Cu
0.000000 0.000000 0.004316 Fe
0.500000 0.000000 0.004316 Fe
0.000000 0.500000 0.004316 Fe
0.500000 0.500000 0.004316 Fe
0.250000 0.000000 0.754316 Fe
0.750000 0.000000 0.754316 Fe
0.250000 0.500000 0.754316 Fe
0.750000 0.500000 0.754316 Fe
0.250000 0.250000 0.504316 Fe
0.750000 0.250000 0.504316 Fe
0.250000 0.750000 0.504316 Fe
0.750000 0.750000 0.504316 Fe
0.000000 0.250000 0.254316 Fe
0.500000 0.250000 0.254316 Fe
0.000000 0.750000 0.254316 Fe
0.500000 0.750000 0.254316 Fe
