Fe16 Cu16 S32
1.0
10.514734 0.027496 0.000000
0.027496 10.514734 0.000000
0.000000 0.000000 10.412378
S Cu Fe
32 16 16
direct
0.126155 0.125033 0.124708 S
0.626155 0.125033 0.124708 S
0.126155 0.625033 0.124708 S
0.626155 0.625033 0.124708 S
0.373845 0.374967 0.124708 S
0.873845 0.374967 0.124708 S
0.373845 0.874967 0.124708 S
0.873845 0.874967 0.124708 S
0.124967 0.373845 0.874708 S
0.624967 0.373845 0.874708 S
0.124967 0.873845 0.874708 S
0.624967 0.873845 0.874708 S
0.375033 0.126155 0.874708 S
0.875033 0.126155 0.874708 S
0.375033 0.626155 0.874708 S
0.875033 0.626155 0.874708 S
0.123845 0.124967 0.624708 S
0.623845 0.124967 0.624708 S
0.123845 0.624967 0.624708 S
0.623845 0.624967 0.624708 S
0.376155 0.375033 0.624708 S
0.876155 0.375033 0.624708 S
0.376155 0.875033 0.624708 S
0.876155 0.875033 0.624708 S
0.374967 0.123845 0.374708 S
0.874967 0.123845 0.374708 S
0.374967 0.623845 0.374708 S
0.874967 0.623845 0.374708 S
0.125033 0.376155 0.374708 S
0.625033 0.376155 0.374708 S
0.125033 0.876155 0.374708 S
0.625033 0.876155 0.374708 S
0.000000 0.000000 0.500249 Cu
0.500000 0.000000 0.500249 Cu
0.000000 0.500000 0.500249 Cu
0.500000 0.500000 0.500249 Cu
0.250000 0.000000 0.250249 Cu
0.750000 0.000000 0.250249 Cu
0.250000 0.500000 0.250249 Cu
0.750000 0.500000 0.250249 Cu
0.250000 0.250000 0.000249 Cu
0.750000 0.250000 0.000249 Cu
0.250000 0.750000 0.000249 Cu
0.750000 0.750000 0.000249 Cu
0.000000 0.250000 0.750249 Cu
0.500000 0.250000 0.750249 Cu
0.000000 0.750000 0.750249 Cu
0.500000 0.750000 0.750249 Cu
0.000000 0.000000 0.000335 Fe
0.500000 0.000000 0.000335 Fe
0.000000 0.500000 0.000335 Fe
0.500000 0.500000 0.000335 Fe
0.250000 0.000000 0.750335 Fe
0.750000 0.000000 0.750335 Fe
0.250000 0.500000 0.750335 Fe
0.750000 0.500000 0.750335 Fe
0.250000 0.250000 0.500335 Fe
0.750000 0.250000 0.500335 Fe
0.250000 0.750000 0.500335 Fe
0.750000 0.750000 0.500335 Fe
0.000000 0.250000 0.250335 Fe
0.500000 0.250000 0.250335 Fe
0.000000 0.750000 0.250335 Fe
0.500000 0.750000 0.250335 Fe
