Fe16 Cu16 S32
1.0
10.513973 0.000000 0.064198
0.000000 10.517383 0.000000
0.063557 0.000000 10.408912
S Cu Fe
32 16 16
direct
0.126191 0.124216 0.125116 S
0.626191 0.124216 0.125116 S
0.126191 0.624216 0.125116 S
0.626191 0.624216 0.125116 S
0.373809 0.374216 0.124884 S
0.873809 0.374216 0.124884 S
0.373809 0.874216 0.124884 S
0.873809 0.874216 0.124884 S
0.125000 0.373393 0.875000 S
0.625000 0.373393 0.875000 S
0.125000 0.873393 0.875000 S
0.625000 0.873393 0.875000 S
0.375000 0.125615 0.875000 S
0.875000 0.125615 0.875000 S
0.375000 0.625615 0.875000 S
0.875000 0.625615 0.875000 S
0.123809 0.124216 0.624884 S
0.623809 0.124216 0.624884 S
0.123809 0.624216 0.624884 S
0.623809 0.624216 0.624884 S
0.376191 0.374216 0.625116 S
0.876191 0.374216 0.625116 S
0.376191 0.874216 0.625116 S
0.876191 0.874216 0.625116 S
0.375000 0.123393 0.375000 S
0.875000 0.123393 0.375000 S
0.375000 0.623393 0.375000 S
0.875000 0.623393 0.375000 S
0.125000 0.375615 0.375000 S
0.625000 0.375615 0.375000 S
0.125000 0.875615 0.375000 S
0.625000 0.875615 0.375000 S
-0.000284 0.000649 0.500001 Cu
0.499716 0.000649 0.500001 Cu
-0.000284 0.500649 0.500001 Cu
0.499716 0.500649 0.500001 Cu
0.250284 0.000649 0.249999 Cu
0.750284 0.000649 0.249999 Cu
0.250284 0.500649 0.249999 Cu
0.750284 0.500649 0.249999 Cu
0.249716 0.250649 0.000001 Cu
0.749716 0.250649 0.000001 Cu
0.249716 0.750649 0.000001 Cu
0.749716 0.750649 0.000001 Cu
0.000284 0.250649 0.749999 Cu
0.500284 0.250649 0.749999 Cu
0.000284 0.750649 0.749999 Cu
0.500284 0.750649 0.749999 Cu
-0.000165 0.000631 0.000094 Fe
0.499835 0.000631 0.000094 Fe
-0.000165 0.500631 0.000094 Fe
0.499835 0.500631 0.000094 Fe
0.250165 0.000631 0.749906 Fe
0.750165 0.000631 0.749906 Fe
0.250165 0.500631 0.749906 Fe
0.750165 0.500631 0.749906 Fe
0.249835 0.250631 0.500094 Fe
0.749835 0.250631 0.500094 Fe
0.249835 0.750631 0.500094 Fe
0.749835 0.750631 0.500094 Fe
0.000165 0.250631 0.249906 Fe
0.500165 0.250631 0.249906 Fe
0.000165 0.750631 0.249906 Fe
0.500165 0.750631 0.249906 Fe
