Fe4 Cu4 S8                              
   1.00000000000000     
     5.2567849999999998    0.0000000000000000    0.0458330000000000
     0.0000000000000000    5.2614361876119489    0.0000000000000000
     0.0907150000000000    0.0000000000000000   10.4043740000000007
   S    Cu   Fe
     8     4     4
Direct
  0.2524075627171882  0.2478185686479790  0.1251942193326556
  0.7475924372828118  0.7478185686479790  0.1248057806673444
  0.2500000000000000  0.7460953122361431  0.8750000000000000
  0.7500000000000000  0.2508441391319991  0.8750000000000000
  0.2475924372828118  0.2478185686479790  0.6248057806673444
  0.7524075627171882  0.7478185686479790  0.6251942193326556
  0.7500000000000000  0.2460953122361502  0.3750000000000000
  0.2500000000000000  0.7508441391320062  0.3750000000000000
  0.9993084324574966  0.0018719590394269  0.5000008710186492
  0.5006915675425034  0.0018719590394269  0.2499991289813508
  0.4993084324574966  0.5018719590394269  0.0000008710186492
  0.0006915675425034  0.5018719590394269  0.7499991289813508
  0.9996772359033201  0.0018397466285194  0.0000186751981346
  0.5003227640966799  0.0018397466285194  0.7499813248018583
  0.4996772359033130  0.5018397466285194  0.5000186751981417
  0.0003227640966799  0.5018397466285194  0.2499813248018654
 
  0.00000000E+00  0.00000000E+00  0.00000000E+00
  0.00000000E+00  0.00000000E+00  0.00000000E+00
  0.00000000E+00  0.00000000E+00  0.00000000E+00
  0.00000000E+00  0.00000000E+00  0.00000000E+00
  0.00000000E+00  0.00000000E+00  0.00000000E+00
  0.00000000E+00  0.00000000E+00  0.00000000E+00
  0.00000000E+00  0.00000000E+00  0.00000000E+00
  0.00000000E+00  0.00000000E+00  0.00000000E+00
  0.00000000E+00  0.00000000E+00  0.00000000E+00
  0.00000000E+00  0.00000000E+00  0.00000000E+00
  0.00000000E+00  0.00000000E+00  0.00000000E+00
  0.00000000E+00  0.00000000E+00  0.00000000E+00
  0.00000000E+00  0.00000000E+00  0.00000000E+00
  0.00000000E+00  0.00000000E+00  0.00000000E+00
  0.00000000E+00  0.00000000E+00  0.00000000E+00
  0.00000000E+00  0.00000000E+00  0.00000000E+00
