Fe16 Cu16 S32
1.0
10.511133 0.109983 0.000000
0.109983 10.511133 0.000000
0.000000 0.000000 10.416723
S Cu Fe
32 16 16
direct
0.126148 0.125120 0.123834 S
0.626148 0.125120 0.123834 S
0.126148 0.625120 0.123834 S
0.626148 0.625120 0.123834 S
0.373852 0.374880 0.123834 S
0.873852 0.374880 0.123834 S
0.373852 0.874880 0.123834 S
0.873852 0.874880 0.123834 S
0.124880 0.373852 0.873834 S
0.624880 0.373852 0.873834 S
0.124880 0.873852 0.873834 S
0.624880 0.873852 0.873834 S
0.375120 0.126148 0.873834 S
0.875120 0.126148 0.873834 S
0.375120 0.626148 0.873834 S
0.875120 0.626148 0.873834 S
0.123852 0.124880 0.623834 S
0.623852 0.124880 0.623834 S
0.123852 0.624880 0.623834 S
0.623852 0.624880 0.623834 S
0.376148 0.375120 0.623834 S
0.876148 0.375120 0.623834 S
0.376148 0.875120 0.623834 S
0.876148 0.875120 0.623834 S
0.374880 0.123852 0.373834 S
0.874880 0.123852 0.373834 S
0.374880 0.623852 0.373834 S
0.874880 0.623852 0.373834 S
0.125120 0.376148 0.373834 S
0.625120 0.376148 0.373834 S
0.125120 0.876148 0.373834 S
0.625120 0.876148 0.373834 S
0.000000 0.000000 0.501014 Cu
0.500000 0.000000 0.501014 Cu
0.000000 0.500000 0.501014 Cu
0.500000 0.500000 0.501014 Cu
0.250000 0.000000 0.251014 Cu
0.750000 0.000000 0.251014 Cu
0.250000 0.500000 0.251014 Cu
0.750000 0.500000 0.251014 Cu
0.250000 0.250000 0.001014 Cu
0.750000 0.250000 0.001014 Cu
0.250000 0.750000 0.001014 Cu
0.750000 0.750000 0.001014 Cu
0.000000 0.250000 0.751014 Cu
0.500000 0.250000 0.751014 Cu
0.000000 0.750000 0.751014 Cu
0.500000 0.750000 0.751014 Cu
0.000000 0.000000 0.001317 Fe
0.500000 0.000000 0.001317 Fe
0.000000 0.500000 0.001317 Fe
0.500000 0.500000 0.001317 Fe
0.250000 0.000000 0.751317 Fe
0.750000 0.000000 0.751317 Fe
0.250000 0.500000 0.751317 Fe
0.750000 0.500000 0.751317 Fe
0.250000 0.250000 0.501317 Fe
0.750000 0.250000 0.501317 Fe
0.250000 0.750000 0.501317 Fe
0.750000 0.750000 0.501317 Fe
0.000000 0.250000 0.251317 Fe
0.500000 0.250000 0.251317 Fe
0.000000 0.750000 0.251317 Fe
0.500000 0.750000 0.251317 Fe
