Fe16 Cu16 S32
1.0
10.475919 0.916524 0.000000
0.916524 10.475919 0.000000
0.000000 0.000000 10.450928
S Cu Fe
32 16 16
direct
0.125979 0.125903 0.115629 S
0.625979 0.125903 0.115629 S
0.125979 0.625903 0.115629 S
0.625979 0.625903 0.115629 S
0.374021 0.374097 0.115629 S
0.874021 0.374097 0.115629 S
0.374021 0.874097 0.115629 S
0.874021 0.874097 0.115629 S
0.124097 0.374021 0.865629 S
0.624097 0.374021 0.865629 S
0.124097 0.874021 0.865629 S
0.624097 0.874021 0.865629 S
0.375903 0.125979 0.865629 S
0.875903 0.125979 0.865629 S
0.375903 0.625979 0.865629 S
0.875903 0.625979 0.865629 S
0.124021 0.124097 0.615629 S
0.624021 0.124097 0.615629 S
0.124021 0.624097 0.615629 S
0.624021 0.624097 0.615629 S
0.375979 0.375903 0.615629 S
0.875979 0.375903 0.615629 S
0.375979 0.875903 0.615629 S
0.875979 0.875903 0.615629 S
0.374097 0.124021 0.365629 S
0.874097 0.124021 0.365629 S
0.374097 0.624021 0.365629 S
0.874097 0.624021 0.365629 S
0.125903 0.375979 0.365629 S
0.625903 0.375979 0.365629 S
0.125903 0.875979 0.365629 S
0.625903 0.875979 0.365629 S
0.000000 0.000000 0.508199 Cu
0.500000 0.000000 0.508199 Cu
0.000000 0.500000 0.508199 Cu
0.500000 0.500000 0.508199 Cu
0.250000 0.000000 0.258199 Cu
0.750000 0.000000 0.258199 Cu
0.250000 0.500000 0.258199 Cu
0.750000 0.500000 0.258199 Cu
0.250000 0.250000 0.008199 Cu
0.750000 0.250000 0.008199 Cu
0.250000 0.750000 0.008199 Cu
0.750000 0.750000 0.008199 Cu
0.000000 0.250000 0.758199 Cu
0.500000 0.250000 0.758199 Cu
0.000000 0.750000 0.758199 Cu
0.500000 0.750000 0.758199 Cu
0.000000 0.000000 0.010544 Fe
0.500000 0.000000 0.010544 Fe
0.000000 0.500000 0.010544 Fe
0.500000 0.500000 0.010544 Fe
0.250000 0.000000 0.760544 Fe
0.750000 0.000000 0.760544 Fe
0.250000 0.500000 0.760544 Fe
0.750000 0.500000 0.760544 Fe
0.250000 0.250000 0.510544 Fe
0.750000 0.250000 0.510544 Fe
0.250000 0.750000 0.510544 Fe
0.750000 0.750000 0.510544 Fe
0.000000 0.250000 0.260544 Fe
0.500000 0.250000 0.260544 Fe
0.000000 0.750000 0.260544 Fe
0.500000 0.750000 0.260544 Fe
