Fe16 Cu16 S32
1.0
10.515855 0.000000 0.018354
0.000000 10.515991 -0.000000
0.018170 -0.000000 10.410775
S Cu Fe
32 16 16
direct
0.126159 0.124781 0.125036 S
0.626159 0.124781 0.125036 S
0.126159 0.624781 0.125036 S
0.626159 0.624781 0.125036 S
0.373841 0.374781 0.124964 S
0.873841 0.374781 0.124964 S
0.373841 0.874781 0.124964 S
0.873841 0.874781 0.124964 S
0.125000 0.373692 0.875000 S
0.625000 0.373692 0.875000 S
0.125000 0.873692 0.875000 S
0.625000 0.873692 0.875000 S
0.375000 0.126002 0.875000 S
0.875000 0.126002 0.875000 S
0.375000 0.626002 0.875000 S
0.875000 0.626002 0.875000 S
0.123841 0.124781 0.624964 S
0.623841 0.124781 0.624964 S
0.123841 0.624781 0.624964 S
0.623841 0.624781 0.624964 S
0.376159 0.374781 0.625036 S
0.876159 0.374781 0.625036 S
0.376159 0.874781 0.625036 S
0.876159 0.874781 0.625036 S
0.375000 0.123692 0.375000 S
0.875000 0.123692 0.375000 S
0.375000 0.623692 0.375000 S
0.875000 0.623692 0.375000 S
0.125000 0.376002 0.375000 S
0.625000 0.376002 0.375000 S
0.125000 0.876002 0.375000 S
0.625000 0.876002 0.375000 S
-0.000067 0.000189 0.499999 Cu
0.499933 0.000189 0.499999 Cu
-0.000067 0.500189 0.499999 Cu
0.499933 0.500189 0.499999 Cu
0.250067 0.000189 0.250001 Cu
0.750067 0.000189 0.250001 Cu
0.250067 0.500189 0.250001 Cu
0.750067 0.500189 0.250001 Cu
0.249933 0.250189 -0.000001 Cu
0.749933 0.250189 -0.000001 Cu
0.249933 0.750189 -0.000001 Cu
0.749933 0.750189 -0.000001 Cu
0.000067 0.250189 0.750001 Cu
0.500067 0.250189 0.750001 Cu
0.000067 0.750189 0.750001 Cu
0.500067 0.750189 0.750001 Cu
-0.000033 0.000183 0.000003 Fe
0.499967 0.000183 0.000003 Fe
-0.000033 0.500183 0.000003 Fe
0.499967 0.500183 0.000003 Fe
0.250033 0.000183 0.749997 Fe
0.750033 0.000183 0.749997 Fe
0.250033 0.500183 0.749997 Fe
0.750033 0.500183 0.749997 Fe
0.249967 0.250183 0.500003 Fe
0.749967 0.250183 0.500003 Fe
0.249967 0.750183 0.500003 Fe
0.749967 0.750183 0.500003 Fe
0.000033 0.250183 0.249997 Fe
0.500033 0.250183 0.249997 Fe
0.000033 0.750183 0.249997 Fe
0.500033 0.750183 0.249997 Fe
