Fe16 Cu16 S32                           
   1.00000000000000     
    10.5099330000000002    0.1374790000000000    0.0000000000000000
     0.1374790000000000   10.5099330000000002    0.0000000000000000
     0.0000000000000000    0.0000000000000000   10.4179270000000006
   S    Cu   Fe
    32    16    16
Direct
  0.1261409999999970  0.1251519999999999  0.1235500000000016
  0.6261409999999970  0.1251519999999999  0.1235500000000016
  0.1261409999999970  0.6251519999999999  0.1235500000000016
  0.6261409999999970  0.6251519999999999  0.1235500000000016
  0.3738590000000030  0.3748480000000001  0.1235500000000016
  0.8738590000000030  0.3748480000000001  0.1235500000000016
  0.3738590000000030  0.8748480000000001  0.1235500000000016
  0.8738590000000030  0.8748480000000001  0.1235500000000016
  0.1248480000000001  0.3738590000000030  0.8735500000000016
  0.6248480000000001  0.3738590000000030  0.8735500000000016
  0.1248480000000001  0.8738590000000030  0.8735500000000016
  0.6248480000000001  0.8738590000000030  0.8735500000000016
  0.3751519999999999  0.1261409999999970  0.8735500000000016
  0.8751519999999999  0.1261409999999970  0.8735500000000016
  0.3751519999999999  0.6261409999999970  0.8735500000000016
  0.8751519999999999  0.6261409999999970  0.8735500000000016
  0.1238590000000030  0.1248480000000001  0.6235500000000016
  0.6238590000000030  0.1248480000000001  0.6235500000000016
  0.1238590000000030  0.6248480000000001  0.6235500000000016
  0.6238590000000030  0.6248480000000001  0.6235500000000016
  0.3761409999999970  0.3751519999999999  0.6235500000000016
  0.8761409999999970  0.3751519999999999  0.6235500000000016
  0.3761409999999970  0.8751519999999999  0.6235500000000016
  0.8761409999999970  0.8751519999999999  0.6235500000000016
  0.3748480000000001  0.1238590000000030  0.3735500000000016
  0.8748480000000001  0.1238590000000030  0.3735500000000016
  0.3748480000000001  0.6238590000000030  0.3735500000000016
  0.8748480000000001  0.6238590000000030  0.3735500000000016
  0.1251519999999999  0.3761409999999970  0.3735500000000016
  0.6251519999999999  0.3761409999999970  0.3735500000000016
  0.1251519999999999  0.8761409999999970  0.3735500000000016
  0.6251519999999999  0.8761409999999970  0.3735500000000016
  0.0000000000000000  0.0000000000000000  0.5012580000000000
  0.5000000000000000  0.0000000000000000  0.5012580000000000
  0.0000000000000000  0.5000000000000000  0.5012580000000000
  0.5000000000000000  0.5000000000000000  0.5012580000000000
  0.2500000000000000  0.0000000000000000  0.2512580000000000
  0.7500000000000000  0.0000000000000000  0.2512580000000000
  0.2500000000000000  0.5000000000000000  0.2512580000000000
  0.7500000000000000  0.5000000000000000  0.2512580000000000
  0.2500000000000000  0.2500000000000000  0.0012580000000000
  0.7500000000000000  0.2500000000000000  0.0012580000000000
  0.2500000000000000  0.7500000000000000  0.0012580000000000
  0.7500000000000000  0.7500000000000000  0.0012580000000000
  0.0000000000000000  0.2500000000000000  0.7512580000000000
  0.5000000000000000  0.2500000000000000  0.7512580000000000
  0.0000000000000000  0.7500000000000000  0.7512580000000000
  0.5000000000000000  0.7500000000000000  0.7512580000000000
  0.0000000000000000  0.0000000000000000  0.0016430000000014
  0.5000000000000000  0.0000000000000000  0.0016430000000014
  0.0000000000000000  0.5000000000000000  0.0016430000000014
  0.5000000000000000  0.5000000000000000  0.0016430000000014
  0.2500000000000000  0.0000000000000000  0.7516430000000014
  0.7500000000000000  0.0000000000000000  0.7516430000000014
  0.2500000000000000  0.5000000000000000  0.7516430000000014
  0.7500000000000000  0.5000000000000000  0.7516430000000014
  0.2500000000000000  0.2500000000000000  0.5016430000000014
  0.7500000000000000  0.2500000000000000  0.5016430000000014
  0.2500000000000000  0.7500000000000000  0.5016430000000014
  0.7500000000000000  0.7500000000000000  0.5016430000000014
  0.0000000000000000  0.2500000000000000  0.2516430000000014
  0.5000000000000000  0.2500000000000000  0.2516430000000014
  0.0000000000000000  0.7500000000000000  0.2516430000000014
  0.5000000000000000  0.7500000000000000  0.2516430000000014
 
  0.00000000E+00  0.00000000E+00  0.00000000E+00
  0.00000000E+00  0.00000000E+00  0.00000000E+00
  0.00000000E+00  0.00000000E+00  0.00000000E+00
  0.00000000E+00  0.00000000E+00  0.00000000E+00
  0.00000000E+00  0.00000000E+00  0.00000000E+00
  0.00000000E+00  0.00000000E+00  0.00000000E+00
  0.00000000E+00  0.00000000E+00  0.00000000E+00
  0.00000000E+00  0.00000000E+00  0.00000000E+00
  0.00000000E+00  0.00000000E+00  0.00000000E+00
  0.00000000E+00  0.00000000E+00  0.00000000E+00
  0.00000000E+00  0.00000000E+00  0.00000000E+00
  0.00000000E+00  0.00000000E+00  0.00000000E+00
  0.00000000E+00  0.00000000E+00  0.00000000E+00
  0.00000000E+00  0.00000000E+00  0.00000000E+00
  0.00000000E+00  0.00000000E+00  0.00000000E+00
  0.00000000E+00  0.00000000E+00  0.00000000E+00
  0.00000000E+00  0.00000000E+00  0.00000000E+00
  0.00000000E+00  0.00000000E+00  0.00000000E+00
  0.00000000E+00  0.00000000E+00  0.00000000E+00
  0.00000000E+00  0.00000000E+00  0.00000000E+00
  0.00000000E+00  0.00000000E+00  0.00000000E+00
  0.00000000E+00  0.00000000E+00  0.00000000E+00
  0.00000000E+00  0.00000000E+00  0.00000000E+00
  0.00000000E+00  0.00000000E+00  0.00000000E+00
  0.00000000E+00  0.00000000E+00  0.00000000E+00
  0.00000000E+00  0.00000000E+00  0.00000000E+00
  0.00000000E+00  0.00000000E+00  0.00000000E+00
  0.00000000E+00  0.00000000E+00  0.00000000E+00
  0.00000000E+00  0.00000000E+00  0.00000000E+00
  0.00000000E+00  0.00000000E+00  0.00000000E+00
  0.00000000E+00  0.00000000E+00  0.00000000E+00
  0.00000000E+00  0.00000000E+00  0.00000000E+00
  0.00000000E+00  0.00000000E+00  0.00000000E+00
  0.00000000E+00  0.00000000E+00  0.00000000E+00
  0.00000000E+00  0.00000000E+00  0.00000000E+00
  0.00000000E+00  0.00000000E+00  0.00000000E+00
  0.00000000E+00  0.00000000E+00  0.00000000E+00
  0.00000000E+00  0.00000000E+00  0.00000000E+00
  0.00000000E+00  0.00000000E+00  0.00000000E+00
  0.00000000E+00  0.00000000E+00  0.00000000E+00
  0.00000000E+00  0.00000000E+00  0.00000000E+00
  0.00000000E+00  0.00000000E+00  0.00000000E+00
  0.00000000E+00  0.00000000E+00  0.00000000E+00
  0.00000000E+00  0.00000000E+00  0.00000000E+00
  0.00000000E+00  0.00000000E+00  0.00000000E+00
  0.00000000E+00  0.00000000E+00  0.00000000E+00
  0.00000000E+00  0.00000000E+00  0.00000000E+00
  0.00000000E+00  0.00000000E+00  0.00000000E+00
  0.00000000E+00  0.00000000E+00  0.00000000E+00
  0.00000000E+00  0.00000000E+00  0.00000000E+00
  0.00000000E+00  0.00000000E+00  0.00000000E+00
  0.00000000E+00  0.00000000E+00  0.00000000E+00
  0.00000000E+00  0.00000000E+00  0.00000000E+00
  0.00000000E+00  0.00000000E+00  0.00000000E+00
  0.00000000E+00  0.00000000E+00  0.00000000E+00
  0.00000000E+00  0.00000000E+00  0.00000000E+00
  0.00000000E+00  0.00000000E+00  0.00000000E+00
  0.00000000E+00  0.00000000E+00  0.00000000E+00
  0.00000000E+00  0.00000000E+00  0.00000000E+00
  0.00000000E+00  0.00000000E+00  0.00000000E+00
  0.00000000E+00  0.00000000E+00  0.00000000E+00
  0.00000000E+00  0.00000000E+00  0.00000000E+00
  0.00000000E+00  0.00000000E+00  0.00000000E+00
  0.00000000E+00  0.00000000E+00  0.00000000E+00
