Fe4 Cu4 S8                              
   1.00000000000000     
     5.2587852477999997    0.0000000000000000    0.0000000000000000
     0.0000000000000000    5.2892082457278082    0.0000000000000000
     2.1640144726999999    0.0000000000000000   10.1808876458000004
   S    Cu   Fe
     8     4     4
Direct
  0.2550386185625726  0.2218478031745761  0.1271237301552546
  0.7449614114374228  0.7218478031745832  0.1228762698447454
  0.2500000000000000  0.7357208777179238  0.8750000000000000
  0.7500000000000000  0.2361379815260563  0.8750000000000000
  0.2449613964374251  0.2218478031745761  0.6228762698447383
  0.7550385885625772  0.7218478031745832  0.6271237301552617
  0.7500000000000000  0.2357208627179119  0.3750000000000000
  0.2500000000000000  0.7361379515260538  0.3750000000000000
  0.9861960054152590  0.0205079160845898  0.5003868301532748
  0.5138039945847481  0.0205079160845898  0.2496131698467252
  0.4861960054152661  0.5205079160845827  0.0003868301532748
  0.0138039945847410  0.5205079160845827  0.7496131698467252
  0.9910677233374940  0.0217148661188489  0.0035376018125532
  0.5089322766624989  0.0217148661188489  0.7464623981874468
  0.4910677233374940  0.5217148661188489  0.5035376018125532
  0.0089322766625060  0.5217148661188489  0.2464623981874539
 
  0.00000000E+00  0.00000000E+00  0.00000000E+00
  0.00000000E+00  0.00000000E+00  0.00000000E+00
  0.00000000E+00  0.00000000E+00  0.00000000E+00
  0.00000000E+00  0.00000000E+00  0.00000000E+00
  0.00000000E+00  0.00000000E+00  0.00000000E+00
  0.00000000E+00  0.00000000E+00  0.00000000E+00
  0.00000000E+00  0.00000000E+00  0.00000000E+00
  0.00000000E+00  0.00000000E+00  0.00000000E+00
  0.00000000E+00  0.00000000E+00  0.00000000E+00
  0.00000000E+00  0.00000000E+00  0.00000000E+00
  0.00000000E+00  0.00000000E+00  0.00000000E+00
  0.00000000E+00  0.00000000E+00  0.00000000E+00
  0.00000000E+00  0.00000000E+00  0.00000000E+00
  0.00000000E+00  0.00000000E+00  0.00000000E+00
  0.00000000E+00  0.00000000E+00  0.00000000E+00
  0.00000000E+00  0.00000000E+00  0.00000000E+00
