Fe16 Cu16 S32
1.0
10.513934 0.045826 0.000000
0.045826 10.513934 0.000000
0.000000 0.000000 10.413525
S Cu Fe
32 16 16
direct
0.126158 0.125051 0.124512 S
0.626158 0.125051 0.124512 S
0.126158 0.625051 0.124512 S
0.626158 0.625051 0.124512 S
0.373842 0.374949 0.124512 S
0.873842 0.374949 0.124512 S
0.373842 0.874949 0.124512 S
0.873842 0.874949 0.124512 S
0.124949 0.373842 0.874512 S
0.624949 0.373842 0.874512 S
0.124949 0.873842 0.874512 S
0.624949 0.873842 0.874512 S
0.375051 0.126158 0.874512 S
0.875051 0.126158 0.874512 S
0.375051 0.626158 0.874512 S
0.875051 0.626158 0.874512 S
0.123842 0.124949 0.624512 S
0.623842 0.124949 0.624512 S
0.123842 0.624949 0.624512 S
0.623842 0.624949 0.624512 S
0.376158 0.375051 0.624512 S
0.876158 0.375051 0.624512 S
0.376158 0.875051 0.624512 S
0.876158 0.875051 0.624512 S
0.374949 0.123842 0.374512 S
0.874949 0.123842 0.374512 S
0.374949 0.623842 0.374512 S
0.874949 0.623842 0.374512 S
0.125051 0.376158 0.374512 S
0.625051 0.376158 0.374512 S
0.125051 0.876158 0.374512 S
0.625051 0.876158 0.374512 S
0.000000 0.000000 0.500422 Cu
0.500000 0.000000 0.500422 Cu
0.000000 0.500000 0.500422 Cu
0.500000 0.500000 0.500422 Cu
0.250000 0.000000 0.250422 Cu
0.750000 0.000000 0.250422 Cu
0.250000 0.500000 0.250422 Cu
0.750000 0.500000 0.250422 Cu
0.250000 0.250000 0.000422 Cu
0.750000 0.250000 0.000422 Cu
0.250000 0.750000 0.000422 Cu
0.750000 0.750000 0.000422 Cu
0.000000 0.250000 0.750422 Cu
0.500000 0.250000 0.750422 Cu
0.000000 0.750000 0.750422 Cu
0.500000 0.750000 0.750422 Cu
0.000000 0.000000 0.000554 Fe
0.500000 0.000000 0.000554 Fe
0.000000 0.500000 0.000554 Fe
0.500000 0.500000 0.000554 Fe
0.250000 0.000000 0.750554 Fe
0.750000 0.000000 0.750554 Fe
0.250000 0.500000 0.750554 Fe
0.750000 0.500000 0.750554 Fe
0.250000 0.250000 0.500554 Fe
0.750000 0.250000 0.500554 Fe
0.250000 0.750000 0.500554 Fe
0.750000 0.750000 0.500554 Fe
0.000000 0.250000 0.250554 Fe
0.500000 0.250000 0.250554 Fe
0.000000 0.750000 0.250554 Fe
0.500000 0.750000 0.250554 Fe
