Fe4 Cu4 S8                              
   1.00000000000000     
     5.2587852477999997    0.0000000000000000    0.0000000000000000
     0.0000000000000000    5.2832493517569752    0.0000000000000000
     1.9860038938000000    0.0000000000000000   10.2171043073999996
   S    Cu   Fe
     8     4     4
Direct
  0.2545383419147313  0.2246073275716967  0.1269069850986995
  0.7454616880852711  0.7246073275716967  0.1230930149013005
  0.2500000000000000  0.7358790327836857  0.8750000000000000
  0.7500000000000000  0.2368223009259935  0.8750000000000000
  0.2454616730852663  0.2246073275716967  0.6230930149013005
  0.7545383119147289  0.7246073275716967  0.6269069850986995
  0.7500000000000000  0.2358790177836738  0.3750000000000000
  0.2500000000000000  0.7368222709259911  0.3750000000000000
  0.9884665006494160  0.0191793848284547  0.5002281474229520
  0.5115334993505769  0.0191793848284547  0.2497718525770480
  0.4884665006494089  0.5191793848284547  0.0002281474229520
  0.0115334993505840  0.5191793848284547  0.7497718525770480
  0.9926839604867368  0.0198626357450067  0.0027871480161679
  0.5073160395132561  0.0198626357450067  0.7472128519838250
  0.4926839604867368  0.5198626357450067  0.5027871480161750
  0.0073160395132632  0.5198626357450067  0.2472128519838392
 
  0.00000000E+00  0.00000000E+00  0.00000000E+00
  0.00000000E+00  0.00000000E+00  0.00000000E+00
  0.00000000E+00  0.00000000E+00  0.00000000E+00
  0.00000000E+00  0.00000000E+00  0.00000000E+00
  0.00000000E+00  0.00000000E+00  0.00000000E+00
  0.00000000E+00  0.00000000E+00  0.00000000E+00
  0.00000000E+00  0.00000000E+00  0.00000000E+00
  0.00000000E+00  0.00000000E+00  0.00000000E+00
  0.00000000E+00  0.00000000E+00  0.00000000E+00
  0.00000000E+00  0.00000000E+00  0.00000000E+00
  0.00000000E+00  0.00000000E+00  0.00000000E+00
  0.00000000E+00  0.00000000E+00  0.00000000E+00
  0.00000000E+00  0.00000000E+00  0.00000000E+00
  0.00000000E+00  0.00000000E+00  0.00000000E+00
  0.00000000E+00  0.00000000E+00  0.00000000E+00
  0.00000000E+00  0.00000000E+00  0.00000000E+00
