Fe16 Cu16 S32
1.0
10.512730 0.000000 0.183500
0.000000 10.518324 0.000000
0.181667 0.000000 10.407681
S Cu Fe
32 16 16
direct
0.126205 0.122825 0.125316 S
0.626205 0.122825 0.125316 S
0.126205 0.622825 0.125316 S
0.626205 0.622825 0.125316 S
0.373795 0.372825 0.124684 S
0.873795 0.372825 0.124684 S
0.373795 0.872825 0.124684 S
0.873795 0.872825 0.124684 S
0.125000 0.372373 0.875000 S
0.625000 0.372373 0.875000 S
0.125000 0.872373 0.875000 S
0.625000 0.872373 0.875000 S
0.375000 0.124549 0.875000 S
0.875000 0.124549 0.875000 S
0.375000 0.624549 0.875000 S
0.875000 0.624549 0.875000 S
0.123795 0.122825 0.624684 S
0.623795 0.122825 0.624684 S
0.123795 0.622825 0.624684 S
0.623795 0.622825 0.624684 S
0.376205 0.372825 0.625316 S
0.876205 0.372825 0.625316 S
0.376205 0.872825 0.625316 S
0.876205 0.872825 0.625316 S
0.375000 0.122373 0.375000 S
0.875000 0.122373 0.375000 S
0.375000 0.622373 0.375000 S
0.875000 0.622373 0.375000 S
0.125000 0.374549 0.375000 S
0.625000 0.374549 0.375000 S
0.125000 0.874549 0.375000 S
0.625000 0.874549 0.375000 S
-0.000642 0.001918 0.500005 Cu
0.499358 0.001918 0.500005 Cu
-0.000642 0.501918 0.500005 Cu
0.499358 0.501918 0.500005 Cu
0.250642 0.001918 0.249995 Cu
0.750642 0.001918 0.249995 Cu
0.250642 0.501918 0.249995 Cu
0.750642 0.501918 0.249995 Cu
0.249358 0.251918 0.000005 Cu
0.749358 0.251918 0.000005 Cu
0.249358 0.751918 0.000005 Cu
0.749358 0.751918 0.000005 Cu
0.000642 0.251918 0.749995 Cu
0.500642 0.251918 0.749995 Cu
0.000642 0.751918 0.749995 Cu
0.500642 0.751918 0.749995 Cu
-0.000352 0.001796 0.000126 Fe
0.499648 0.001796 0.000126 Fe
-0.000352 0.501796 0.000126 Fe
0.499648 0.501796 0.000126 Fe
0.250352 0.001796 0.749874 Fe
0.750352 0.001796 0.749874 Fe
0.250352 0.501796 0.749874 Fe
0.750352 0.501796 0.749874 Fe
0.249648 0.251796 0.500126 Fe
0.749648 0.251796 0.500126 Fe
0.249648 0.751796 0.500126 Fe
0.749648 0.751796 0.500126 Fe
0.000352 0.251796 0.249874 Fe
0.500352 0.251796 0.249874 Fe
0.000352 0.751796 0.249874 Fe
0.500352 0.751796 0.249874 Fe
