Fe16 Cu16 S32
1.0
10.483922 0.733219 0.000000
0.733219 10.483922 0.000000
0.000000 0.000000 10.444583
S Cu Fe
32 16 16
direct
0.126019 0.125798 0.117406 S
0.626019 0.125798 0.117406 S
0.126019 0.625798 0.117406 S
0.626019 0.625798 0.117406 S
0.373981 0.374202 0.117406 S
0.873981 0.374202 0.117406 S
0.373981 0.874202 0.117406 S
0.873981 0.874202 0.117406 S
0.124202 0.373981 0.867406 S
0.624202 0.373981 0.867406 S
0.124202 0.873981 0.867406 S
0.624202 0.873981 0.867406 S
0.375798 0.126019 0.867406 S
0.875798 0.126019 0.867406 S
0.375798 0.626019 0.867406 S
0.875798 0.626019 0.867406 S
0.123981 0.124202 0.617406 S
0.623981 0.124202 0.617406 S
0.123981 0.624202 0.617406 S
0.623981 0.624202 0.617406 S
0.376019 0.375798 0.617406 S
0.876019 0.375798 0.617406 S
0.376019 0.875798 0.617406 S
0.876019 0.875798 0.617406 S
0.374202 0.123981 0.367406 S
0.874202 0.123981 0.367406 S
0.374202 0.623981 0.367406 S
0.874202 0.623981 0.367406 S
0.125798 0.376019 0.367406 S
0.625798 0.376019 0.367406 S
0.125798 0.876019 0.367406 S
0.625798 0.876019 0.367406 S
0.000000 0.000000 0.506557 Cu
0.500000 0.000000 0.506557 Cu
0.000000 0.500000 0.506557 Cu
0.500000 0.500000 0.506557 Cu
0.250000 0.000000 0.256557 Cu
0.750000 0.000000 0.256557 Cu
0.250000 0.500000 0.256557 Cu
0.750000 0.500000 0.256557 Cu
0.250000 0.250000 0.006557 Cu
0.750000 0.250000 0.006557 Cu
0.250000 0.750000 0.006557 Cu
0.750000 0.750000 0.006557 Cu
0.000000 0.250000 0.756557 Cu
0.500000 0.250000 0.756557 Cu
0.000000 0.750000 0.756557 Cu
0.500000 0.750000 0.756557 Cu
0.000000 0.000000 0.008631 Fe
0.500000 0.000000 0.008631 Fe
0.000000 0.500000 0.008631 Fe
0.500000 0.500000 0.008631 Fe
0.250000 0.000000 0.758631 Fe
0.750000 0.000000 0.758631 Fe
0.250000 0.500000 0.758631 Fe
0.750000 0.500000 0.758631 Fe
0.250000 0.250000 0.508631 Fe
0.750000 0.250000 0.508631 Fe
0.250000 0.750000 0.508631 Fe
0.750000 0.750000 0.508631 Fe
0.000000 0.250000 0.258631 Fe
0.500000 0.250000 0.258631 Fe
0.000000 0.750000 0.258631 Fe
0.500000 0.750000 0.258631 Fe
