Fe16 Cu16 S32
1.0
10.494326 0.494923 0.000000
0.494923 10.494326 0.000000
0.000000 0.000000 10.435423
S Cu Fe
32 16 16
direct
0.126088 0.125530 0.119807 S
0.626088 0.125530 0.119807 S
0.126088 0.625530 0.119807 S
0.626088 0.625530 0.119807 S
0.373912 0.374470 0.119807 S
0.873912 0.374470 0.119807 S
0.373912 0.874470 0.119807 S
0.873912 0.874470 0.119807 S
0.124470 0.373912 0.869807 S
0.624470 0.373912 0.869807 S
0.124470 0.873912 0.869807 S
0.624470 0.873912 0.869807 S
0.375530 0.126088 0.869807 S
0.875530 0.126088 0.869807 S
0.375530 0.626088 0.869807 S
0.875530 0.626088 0.869807 S
0.123912 0.124470 0.619807 S
0.623912 0.124470 0.619807 S
0.123912 0.624470 0.619807 S
0.623912 0.624470 0.619807 S
0.376088 0.375530 0.619807 S
0.876088 0.375530 0.619807 S
0.376088 0.875530 0.619807 S
0.876088 0.875530 0.619807 S
0.374470 0.123912 0.369807 S
0.874470 0.123912 0.369807 S
0.374470 0.623912 0.369807 S
0.874470 0.623912 0.369807 S
0.125530 0.376088 0.369807 S
0.625530 0.376088 0.369807 S
0.125530 0.876088 0.369807 S
0.625530 0.876088 0.369807 S
0.000000 0.000000 0.504523 Cu
0.500000 0.000000 0.504523 Cu
0.000000 0.500000 0.504523 Cu
0.500000 0.500000 0.504523 Cu
0.250000 0.000000 0.254523 Cu
0.750000 0.000000 0.254523 Cu
0.250000 0.500000 0.254523 Cu
0.750000 0.500000 0.254523 Cu
0.250000 0.250000 0.004523 Cu
0.750000 0.250000 0.004523 Cu
0.250000 0.750000 0.004523 Cu
0.750000 0.750000 0.004523 Cu
0.000000 0.250000 0.754523 Cu
0.500000 0.250000 0.754523 Cu
0.000000 0.750000 0.754523 Cu
0.500000 0.750000 0.754523 Cu
0.000000 0.000000 0.005864 Fe
0.500000 0.000000 0.005864 Fe
0.000000 0.500000 0.005864 Fe
0.500000 0.500000 0.005864 Fe
0.250000 0.000000 0.755864 Fe
0.750000 0.000000 0.755864 Fe
0.250000 0.500000 0.755864 Fe
0.750000 0.500000 0.755864 Fe
0.250000 0.250000 0.505864 Fe
0.750000 0.250000 0.505864 Fe
0.250000 0.750000 0.505864 Fe
0.750000 0.750000 0.505864 Fe
0.000000 0.250000 0.255864 Fe
0.500000 0.250000 0.255864 Fe
0.000000 0.750000 0.255864 Fe
0.500000 0.750000 0.255864 Fe
