Fe16 Cu16 S32
1.0
10.513934 0.045826 0.000000
0.045826 10.513934 0.000000
0.000000 0.000000 10.413212
S Cu Fe
32 16 16
direct
0.126152 0.125051 0.124517 S
0.626152 0.125051 0.124517 S
0.126152 0.625051 0.124517 S
0.626152 0.625051 0.124517 S
0.373848 0.374949 0.124517 S
0.873848 0.374949 0.124517 S
0.373848 0.874949 0.124517 S
0.873848 0.874949 0.124517 S
0.124949 0.373848 0.874517 S
0.624949 0.373848 0.874517 S
0.124949 0.873848 0.874517 S
0.624949 0.873848 0.874517 S
0.375051 0.126152 0.874517 S
0.875051 0.126152 0.874517 S
0.375051 0.626152 0.874517 S
0.875051 0.626152 0.874517 S
0.123848 0.124949 0.624517 S
0.623848 0.124949 0.624517 S
0.123848 0.624949 0.624517 S
0.623848 0.624949 0.624517 S
0.376152 0.375051 0.624517 S
0.876152 0.375051 0.624517 S
0.376152 0.875051 0.624517 S
0.876152 0.875051 0.624517 S
0.374949 0.123848 0.374517 S
0.874949 0.123848 0.374517 S
0.374949 0.623848 0.374517 S
0.874949 0.623848 0.374517 S
0.125051 0.376152 0.374517 S
0.625051 0.376152 0.374517 S
0.125051 0.876152 0.374517 S
0.625051 0.876152 0.374517 S
0.000000 0.000000 0.500419 Cu
0.500000 0.000000 0.500419 Cu
0.000000 0.500000 0.500419 Cu
0.500000 0.500000 0.500419 Cu
0.250000 0.000000 0.250419 Cu
0.750000 0.000000 0.250419 Cu
0.250000 0.500000 0.250419 Cu
0.750000 0.500000 0.250419 Cu
0.250000 0.250000 0.000419 Cu
0.750000 0.250000 0.000419 Cu
0.250000 0.750000 0.000419 Cu
0.750000 0.750000 0.000419 Cu
0.000000 0.250000 0.750419 Cu
0.500000 0.250000 0.750419 Cu
0.000000 0.750000 0.750419 Cu
0.500000 0.750000 0.750419 Cu
0.000000 0.000000 0.000548 Fe
0.500000 0.000000 0.000548 Fe
0.000000 0.500000 0.000548 Fe
0.500000 0.500000 0.000548 Fe
0.250000 0.000000 0.750548 Fe
0.750000 0.000000 0.750548 Fe
0.250000 0.500000 0.750548 Fe
0.750000 0.500000 0.750548 Fe
0.250000 0.250000 0.500548 Fe
0.750000 0.250000 0.500548 Fe
0.250000 0.750000 0.500548 Fe
0.750000 0.750000 0.500548 Fe
0.000000 0.250000 0.250548 Fe
0.500000 0.250000 0.250548 Fe
0.000000 0.750000 0.250548 Fe
0.500000 0.750000 0.250548 Fe
