Fe16 Cu16 S32
1.0
10.515574 0.000000 0.027527
0.000000 10.516221 0.000000
0.027252 0.000000 10.410497
S Cu Fe
32 16 16
direct
0.126163 0.124672 0.125051 S
0.626163 0.124672 0.125051 S
0.126163 0.624672 0.125051 S
0.626163 0.624672 0.125051 S
0.373837 0.374672 0.124949 S
0.873837 0.374672 0.124949 S
0.373837 0.874672 0.124949 S
0.873837 0.874672 0.124949 S
0.125000 0.373621 0.875000 S
0.625000 0.373621 0.875000 S
0.125000 0.873621 0.875000 S
0.625000 0.873621 0.875000 S
0.375000 0.125919 0.875000 S
0.875000 0.125919 0.875000 S
0.375000 0.625919 0.875000 S
0.875000 0.625919 0.875000 S
0.123837 0.124672 0.624949 S
0.623837 0.124672 0.624949 S
0.123837 0.624672 0.624949 S
0.623837 0.624672 0.624949 S
0.376163 0.374672 0.625051 S
0.876163 0.374672 0.625051 S
0.376163 0.874672 0.625051 S
0.876163 0.874672 0.625051 S
0.375000 0.123621 0.375000 S
0.875000 0.123621 0.375000 S
0.375000 0.623621 0.375000 S
0.875000 0.623621 0.375000 S
0.125000 0.375919 0.375000 S
0.625000 0.375919 0.375000 S
0.125000 0.875919 0.375000 S
0.625000 0.875919 0.375000 S
-0.000101 0.000286 0.499999 Cu
0.499899 0.000286 0.499999 Cu
-0.000101 0.500286 0.499999 Cu
0.499899 0.500286 0.499999 Cu
0.250101 0.000286 0.250001 Cu
0.750101 0.000286 0.250001 Cu
0.250101 0.500286 0.250001 Cu
0.750101 0.500286 0.250001 Cu
0.249899 0.250286 -0.000001 Cu
0.749899 0.250286 -0.000001 Cu
0.249899 0.750286 -0.000001 Cu
0.749899 0.750286 -0.000001 Cu
0.000101 0.250286 0.750001 Cu
0.500101 0.250286 0.750001 Cu
0.000101 0.750286 0.750001 Cu
0.500101 0.750286 0.750001 Cu
-0.000052 0.000272 0.000015 Fe
0.499948 0.000272 0.000015 Fe
-0.000052 0.500272 0.000015 Fe
0.499948 0.500272 0.000015 Fe
0.250052 0.000272 0.749985 Fe
0.750052 0.000272 0.749985 Fe
0.250052 0.500272 0.749985 Fe
0.750052 0.500272 0.749985 Fe
0.249948 0.250272 0.500015 Fe
0.749948 0.250272 0.500015 Fe
0.249948 0.750272 0.500015 Fe
0.749948 0.750272 0.500015 Fe
0.000052 0.250272 0.249985 Fe
0.500052 0.250272 0.249985 Fe
0.000052 0.750272 0.249985 Fe
0.500052 0.750272 0.249985 Fe
