Fe16 Cu16 S32
1.0
10.514734 0.027496 0.000000
0.027496 10.514734 0.000000
0.000000 0.000000 10.412456
S Cu Fe
32 16 16
direct
0.126158 0.125031 0.124707 S
0.626158 0.125031 0.124707 S
0.126158 0.625031 0.124707 S
0.626158 0.625031 0.124707 S
0.373842 0.374969 0.124707 S
0.873842 0.374969 0.124707 S
0.373842 0.874969 0.124707 S
0.873842 0.874969 0.124707 S
0.124969 0.373842 0.874707 S
0.624969 0.373842 0.874707 S
0.124969 0.873842 0.874707 S
0.624969 0.873842 0.874707 S
0.375031 0.126158 0.874707 S
0.875031 0.126158 0.874707 S
0.375031 0.626158 0.874707 S
0.875031 0.626158 0.874707 S
0.123842 0.124969 0.624707 S
0.623842 0.124969 0.624707 S
0.123842 0.624969 0.624707 S
0.623842 0.624969 0.624707 S
0.376158 0.375031 0.624707 S
0.876158 0.375031 0.624707 S
0.376158 0.875031 0.624707 S
0.876158 0.875031 0.624707 S
0.374969 0.123842 0.374707 S
0.874969 0.123842 0.374707 S
0.374969 0.623842 0.374707 S
0.874969 0.623842 0.374707 S
0.125031 0.376158 0.374707 S
0.625031 0.376158 0.374707 S
0.125031 0.876158 0.374707 S
0.625031 0.876158 0.374707 S
0.000000 0.000000 0.500253 Cu
0.500000 0.000000 0.500253 Cu
0.000000 0.500000 0.500253 Cu
0.500000 0.500000 0.500253 Cu
0.250000 0.000000 0.250253 Cu
0.750000 0.000000 0.250253 Cu
0.250000 0.500000 0.250253 Cu
0.750000 0.500000 0.250253 Cu
0.250000 0.250000 0.000253 Cu
0.750000 0.250000 0.000253 Cu
0.250000 0.750000 0.000253 Cu
0.750000 0.750000 0.000253 Cu
0.000000 0.250000 0.750253 Cu
0.500000 0.250000 0.750253 Cu
0.000000 0.750000 0.750253 Cu
0.500000 0.750000 0.750253 Cu
0.000000 0.000000 0.000333 Fe
0.500000 0.000000 0.000333 Fe
0.000000 0.500000 0.000333 Fe
0.500000 0.500000 0.000333 Fe
0.250000 0.000000 0.750333 Fe
0.750000 0.000000 0.750333 Fe
0.250000 0.500000 0.750333 Fe
0.750000 0.500000 0.750333 Fe
0.250000 0.250000 0.500333 Fe
0.750000 0.250000 0.500333 Fe
0.250000 0.750000 0.500333 Fe
0.750000 0.750000 0.500333 Fe
0.000000 0.250000 0.250333 Fe
0.500000 0.250000 0.250333 Fe
0.000000 0.750000 0.250333 Fe
0.500000 0.750000 0.250333 Fe
