Fe16 Cu16 S32
1.0
10.510333 0.128313 0.000000
0.128313 10.510333 0.000000
0.000000 0.000000 10.416974
S Cu Fe
32 16 16
direct
0.126136 0.125139 0.123662 S
0.626136 0.125139 0.123662 S
0.126136 0.625139 0.123662 S
0.626136 0.625139 0.123662 S
0.373864 0.374861 0.123662 S
0.873864 0.374861 0.123662 S
0.373864 0.874861 0.123662 S
0.873864 0.874861 0.123662 S
0.124861 0.373864 0.873662 S
0.624861 0.373864 0.873662 S
0.124861 0.873864 0.873662 S
0.624861 0.873864 0.873662 S
0.375139 0.126136 0.873662 S
0.875139 0.126136 0.873662 S
0.375139 0.626136 0.873662 S
0.875139 0.626136 0.873662 S
0.123864 0.124861 0.623662 S
0.623864 0.124861 0.623662 S
0.123864 0.624861 0.623662 S
0.623864 0.624861 0.623662 S
0.376136 0.375139 0.623662 S
0.876136 0.375139 0.623662 S
0.376136 0.875139 0.623662 S
0.876136 0.875139 0.623662 S
0.374861 0.123864 0.373662 S
0.874861 0.123864 0.373662 S
0.374861 0.623864 0.373662 S
0.874861 0.623864 0.373662 S
0.125139 0.376136 0.373662 S
0.625139 0.376136 0.373662 S
0.125139 0.876136 0.373662 S
0.625139 0.876136 0.373662 S
0.000000 0.000000 0.501161 Cu
0.500000 0.000000 0.501161 Cu
0.000000 0.500000 0.501161 Cu
0.500000 0.500000 0.501161 Cu
0.250000 0.000000 0.251161 Cu
0.750000 0.000000 0.251161 Cu
0.250000 0.500000 0.251161 Cu
0.750000 0.500000 0.251161 Cu
0.250000 0.250000 0.001161 Cu
0.750000 0.250000 0.001161 Cu
0.250000 0.750000 0.001161 Cu
0.750000 0.750000 0.001161 Cu
0.000000 0.250000 0.751161 Cu
0.500000 0.250000 0.751161 Cu
0.000000 0.750000 0.751161 Cu
0.500000 0.750000 0.751161 Cu
0.000000 0.000000 0.001516 Fe
0.500000 0.000000 0.001516 Fe
0.000000 0.500000 0.001516 Fe
0.500000 0.500000 0.001516 Fe
0.250000 0.000000 0.751516 Fe
0.750000 0.000000 0.751516 Fe
0.250000 0.500000 0.751516 Fe
0.750000 0.500000 0.751516 Fe
0.250000 0.250000 0.501516 Fe
0.750000 0.250000 0.501516 Fe
0.250000 0.750000 0.501516 Fe
0.750000 0.750000 0.501516 Fe
0.000000 0.250000 0.251516 Fe
0.500000 0.250000 0.251516 Fe
0.000000 0.750000 0.251516 Fe
0.500000 0.750000 0.251516 Fe
