sm_isp_SD0310437-standardized_unitcell  
   1.00000000000000     
     5.1010220858545257    0.0000000000000000    0.0000000000000000
     0.0000000000000000    5.4769252208188117    0.0000000000000000
     0.0000000000000000    0.0000000000000000   10.0960847019775954
   S    Cu   Fe
     8     4     4
Direct
  0.2520364777685913  0.2500000000000000  0.1250000000000000
  0.7479635522313970  0.7500000000000000  0.1250000000000000
  0.2500000000000000  0.7471818226996874  0.8750000000000000
  0.7500000000000000  0.2528182073003009  0.8750000000000000
  0.2479635222314016  0.2500000000000000  0.6250000000000000
  0.7520364477686030  0.7500000000000000  0.6250000000000000
  0.7500000000000000  0.2471817926996920  0.3750000000000000
  0.2500000000000000  0.7528181773003126  0.3750000000000000
  0.0000000000000000  0.0000000000000000  0.5007169010864772
  0.5000000000000000  0.0000000000000000  0.2492830989135228
  0.5000000000000000  0.5000000000000000  0.0007169010864772
  0.0000000000000000  0.5000000000000000  0.7492830989135228
  0.0000000000000000  0.0000000000000000  0.9999224893681671
  0.5000000000000000  0.0000000000000000  0.7500775106318400
  0.5000000000000000  0.5000000000000000  0.4999224893681600
  0.0000000000000000  0.5000000000000000  0.2500775106318329
 
  0.00000000E+00  0.00000000E+00  0.00000000E+00
  0.00000000E+00  0.00000000E+00  0.00000000E+00
  0.00000000E+00  0.00000000E+00  0.00000000E+00
  0.00000000E+00  0.00000000E+00  0.00000000E+00
  0.00000000E+00  0.00000000E+00  0.00000000E+00
  0.00000000E+00  0.00000000E+00  0.00000000E+00
  0.00000000E+00  0.00000000E+00  0.00000000E+00
  0.00000000E+00  0.00000000E+00  0.00000000E+00
  0.00000000E+00  0.00000000E+00  0.00000000E+00
  0.00000000E+00  0.00000000E+00  0.00000000E+00
  0.00000000E+00  0.00000000E+00  0.00000000E+00
  0.00000000E+00  0.00000000E+00  0.00000000E+00
  0.00000000E+00  0.00000000E+00  0.00000000E+00
  0.00000000E+00  0.00000000E+00  0.00000000E+00
  0.00000000E+00  0.00000000E+00  0.00000000E+00
  0.00000000E+00  0.00000000E+00  0.00000000E+00
