Fe16 Cu16 S32
1.0
10.479920 0.000000 0.824872
0.000000 10.545508 -0.000000
0.816629 -0.000000 10.375200
S Cu Fe
32 16 16
direct
0.126858 0.114629 0.126467 S
0.626858 0.114629 0.126467 S
0.126858 0.614629 0.126467 S
0.626858 0.614629 0.126467 S
0.373142 0.364629 0.123533 S
0.873142 0.364629 0.123533 S
0.373142 0.864629 0.123533 S
0.873142 0.864629 0.123533 S
0.125000 0.368898 0.875000 S
0.625000 0.368898 0.875000 S
0.125000 0.868898 0.875000 S
0.625000 0.868898 0.875000 S
0.375000 0.119538 0.875000 S
0.875000 0.119538 0.875000 S
0.375000 0.619538 0.875000 S
0.875000 0.619538 0.875000 S
0.123142 0.114629 0.623533 S
0.623142 0.114629 0.623533 S
0.123142 0.614629 0.623533 S
0.623142 0.614629 0.623533 S
0.376858 0.364629 0.626467 S
0.876858 0.364629 0.626467 S
0.376858 0.864629 0.626467 S
0.876858 0.864629 0.626467 S
0.375000 0.118898 0.375000 S
0.875000 0.118898 0.375000 S
0.375000 0.618898 0.375000 S
0.875000 0.618898 0.375000 S
0.125000 0.369538 0.375000 S
0.625000 0.369538 0.375000 S
0.125000 0.869538 0.375000 S
0.625000 0.869538 0.375000 S
-0.004404 0.008066 0.500098 Cu
0.495596 0.008066 0.500098 Cu
-0.004404 0.508066 0.500098 Cu
0.495596 0.508066 0.500098 Cu
0.254404 0.008066 0.249902 Cu
0.754404 0.008066 0.249902 Cu
0.254404 0.508066 0.249902 Cu
0.754404 0.508066 0.249902 Cu
0.245596 0.258066 0.000098 Cu
0.745596 0.258066 0.000098 Cu
0.245596 0.758066 0.000098 Cu
0.745596 0.758066 0.000098 Cu
0.004404 0.258066 0.749902 Cu
0.504404 0.258066 0.749902 Cu
0.004404 0.758066 0.749902 Cu
0.504404 0.758066 0.749902 Cu
-0.002821 0.008086 0.002002 Fe
0.497179 0.008086 0.002002 Fe
-0.002821 0.508086 0.002002 Fe
0.497179 0.508086 0.002002 Fe
0.252821 0.008086 0.747998 Fe
0.752821 0.008086 0.747998 Fe
0.252821 0.508086 0.747998 Fe
0.752821 0.508086 0.747998 Fe
0.247179 0.258086 0.502002 Fe
0.747179 0.258086 0.502002 Fe
0.247179 0.758086 0.502002 Fe
0.747179 0.758086 0.502002 Fe
0.002821 0.258086 0.247998 Fe
0.502821 0.258086 0.247998 Fe
0.002821 0.758086 0.247998 Fe
0.502821 0.758086 0.247998 Fe
