Fe16 Cu16 S32
1.0
10.512333 0.082487 0.000000
0.082487 10.512333 0.000000
0.000000 0.000000 10.414560
S Cu Fe
32 16 16
direct
0.126141 0.125088 0.124151 S
0.626141 0.125088 0.124151 S
0.126141 0.625088 0.124151 S
0.626141 0.625088 0.124151 S
0.373859 0.374912 0.124151 S
0.873859 0.374912 0.124151 S
0.373859 0.874912 0.124151 S
0.873859 0.874912 0.124151 S
0.124912 0.373859 0.874151 S
0.624912 0.373859 0.874151 S
0.124912 0.873859 0.874151 S
0.624912 0.873859 0.874151 S
0.375088 0.126141 0.874151 S
0.875088 0.126141 0.874151 S
0.375088 0.626141 0.874151 S
0.875088 0.626141 0.874151 S
0.123859 0.124912 0.624151 S
0.623859 0.124912 0.624151 S
0.123859 0.624912 0.624151 S
0.623859 0.624912 0.624151 S
0.376141 0.375088 0.624151 S
0.876141 0.375088 0.624151 S
0.376141 0.875088 0.624151 S
0.876141 0.875088 0.624151 S
0.374912 0.123859 0.374151 S
0.874912 0.123859 0.374151 S
0.374912 0.623859 0.374151 S
0.874912 0.623859 0.374151 S
0.125088 0.376141 0.374151 S
0.625088 0.376141 0.374151 S
0.125088 0.876141 0.374151 S
0.625088 0.876141 0.374151 S
0.000000 0.000000 0.500733 Cu
0.500000 0.000000 0.500733 Cu
0.000000 0.500000 0.500733 Cu
0.500000 0.500000 0.500733 Cu
0.250000 0.000000 0.250733 Cu
0.750000 0.000000 0.250733 Cu
0.250000 0.500000 0.250733 Cu
0.750000 0.500000 0.250733 Cu
0.250000 0.250000 0.000733 Cu
0.750000 0.250000 0.000733 Cu
0.250000 0.750000 0.000733 Cu
0.750000 0.750000 0.000733 Cu
0.000000 0.250000 0.750733 Cu
0.500000 0.250000 0.750733 Cu
0.000000 0.750000 0.750733 Cu
0.500000 0.750000 0.750733 Cu
0.000000 0.000000 0.000964 Fe
0.500000 0.000000 0.000964 Fe
0.000000 0.500000 0.000964 Fe
0.500000 0.500000 0.000964 Fe
0.250000 0.000000 0.750964 Fe
0.750000 0.000000 0.750964 Fe
0.250000 0.500000 0.750964 Fe
0.750000 0.500000 0.750964 Fe
0.250000 0.250000 0.500964 Fe
0.750000 0.250000 0.500964 Fe
0.250000 0.750000 0.500964 Fe
0.750000 0.750000 0.500964 Fe
0.000000 0.250000 0.250964 Fe
0.500000 0.250000 0.250964 Fe
0.000000 0.750000 0.250964 Fe
0.500000 0.750000 0.250964 Fe
