Fe16 Cu16 S32
1.0
10.510930 0.000000 0.229349
0.000000 10.519251 0.000000
0.227058 0.000000 10.405900
S Cu Fe
32 16 16
direct
0.126237 0.122220 0.125431 S
0.626237 0.122220 0.125431 S
0.126237 0.622220 0.125431 S
0.626237 0.622220 0.125431 S
0.373763 0.372220 0.124569 S
0.873763 0.372220 0.124569 S
0.373763 0.872220 0.124569 S
0.873763 0.872220 0.124569 S
0.125000 0.372118 0.875000 S
0.625000 0.372118 0.875000 S
0.125000 0.872118 0.875000 S
0.625000 0.872118 0.875000 S
0.375000 0.124202 0.875000 S
0.875000 0.124202 0.875000 S
0.375000 0.624202 0.875000 S
0.875000 0.624202 0.875000 S
0.123763 0.122220 0.624569 S
0.623763 0.122220 0.624569 S
0.123763 0.622220 0.624569 S
0.623763 0.622220 0.624569 S
0.376237 0.372220 0.625431 S
0.876237 0.372220 0.625431 S
0.376237 0.872220 0.625431 S
0.876237 0.872220 0.625431 S
0.375000 0.122118 0.375000 S
0.875000 0.122118 0.375000 S
0.375000 0.622118 0.375000 S
0.875000 0.622118 0.375000 S
0.125000 0.374202 0.375000 S
0.625000 0.374202 0.375000 S
0.125000 0.874202 0.375000 S
0.625000 0.874202 0.375000 S
-0.000939 0.002353 0.500006 Cu
0.499061 0.002353 0.500006 Cu
-0.000939 0.502353 0.500006 Cu
0.499061 0.502353 0.500006 Cu
0.250939 0.002353 0.249994 Cu
0.750939 0.002353 0.249994 Cu
0.250939 0.502353 0.249994 Cu
0.750939 0.502353 0.249994 Cu
0.249061 0.252353 0.000006 Cu
0.749061 0.252353 0.000006 Cu
0.249061 0.752353 0.000006 Cu
0.749061 0.752353 0.000006 Cu
0.000939 0.252353 0.749994 Cu
0.500939 0.252353 0.749994 Cu
0.000939 0.752353 0.749994 Cu
0.500939 0.752353 0.749994 Cu
-0.000511 0.002267 0.000220 Fe
0.499489 0.002267 0.000220 Fe
-0.000511 0.502267 0.000220 Fe
0.499489 0.502267 0.000220 Fe
0.250511 0.002267 0.749780 Fe
0.750511 0.002267 0.749780 Fe
0.250511 0.502267 0.749780 Fe
0.750511 0.502267 0.749780 Fe
0.249489 0.252267 0.500220 Fe
0.749489 0.252267 0.500220 Fe
0.249489 0.752267 0.500220 Fe
0.749489 0.752267 0.500220 Fe
0.000511 0.252267 0.249780 Fe
0.500511 0.252267 0.249780 Fe
0.000511 0.752267 0.249780 Fe
0.500511 0.752267 0.249780 Fe
