Fe16 Cu16 S32                           
   1.00000000000000     
    10.4919250000000002    0.5499140000000000    0.0000000000000000
     0.5499140000000000   10.4919250000000002    0.0000000000000000
     0.0000000000000000    0.0000000000000000   10.4381528640417862
   S    Cu   Fe
    32    16    16
Direct
  0.1260802822198883  0.1255883438157923  0.1192296726349866
  0.6260802822198812  0.1255883438157923  0.1192296726349866
  0.1260802822198883  0.6255883438157923  0.1192296726349866
  0.6260802822198812  0.6255883438157923  0.1192296726349866
  0.3739197177801188  0.3744116561842077  0.1192296726349866
  0.8739197177801188  0.3744116561842077  0.1192296726349866
  0.3739197177801188  0.8744116561842077  0.1192296726349866
  0.8739197177801188  0.8744116561842077  0.1192296726349866
  0.1244116561842077  0.3739197177801188  0.8692296726349795
  0.6244116561842077  0.3739197177801188  0.8692296726349795
  0.1244116561842077  0.8739197177801188  0.8692296726349795
  0.6244116561842077  0.8739197177801188  0.8692296726349795
  0.3755883438157923  0.1260802822198883  0.8692296726349795
  0.8755883438157923  0.1260802822198883  0.8692296726349795
  0.3755883438157923  0.6260802822198812  0.8692296726349795
  0.8755883438157923  0.6260802822198812  0.8692296726349795
  0.1239197177801117  0.1244116561842077  0.6192296726349795
  0.6239197177801188  0.1244116561842077  0.6192296726349795
  0.1239197177801117  0.6244116561842077  0.6192296726349795
  0.6239197177801188  0.6244116561842077  0.6192296726349795
  0.3760802822198812  0.3755883438157923  0.6192296726349795
  0.8760802822198812  0.3755883438157923  0.6192296726349795
  0.3760802822198812  0.8755883438157923  0.6192296726349795
  0.8760802822198812  0.8755883438157923  0.6192296726349795
  0.3744116561842077  0.1239197177801117  0.3692296726349866
  0.8744116561842077  0.1239197177801117  0.3692296726349866
  0.3744116561842077  0.6239197177801188  0.3692296726349866
  0.8744116561842077  0.6239197177801188  0.3692296726349866
  0.1255883438157923  0.3760802822198812  0.3692296726349866
  0.6255883438157923  0.3760802822198812  0.3692296726349866
  0.1255883438157923  0.8760802822198812  0.3692296726349866
  0.6255883438157923  0.8760802822198812  0.3692296726349866
  0.0000000000000000  0.0000000000000000  0.5050252778075048
  0.5000000000000000  0.0000000000000000  0.5050252778075048
  0.0000000000000000  0.5000000000000000  0.5050252778075048
  0.5000000000000000  0.5000000000000000  0.5050252778075048
  0.2500000000000000  0.0000000000000000  0.2550252778074977
  0.7500000000000000  0.0000000000000000  0.2550252778074977
  0.2500000000000000  0.5000000000000000  0.2550252778074977
  0.7500000000000000  0.5000000000000000  0.2550252778074977
  0.2500000000000000  0.2500000000000000  0.0050252778074977
  0.7500000000000000  0.2500000000000000  0.0050252778074977
  0.2500000000000000  0.7500000000000000  0.0050252778074977
  0.7500000000000000  0.7500000000000000  0.0050252778074977
  0.0000000000000000  0.2500000000000000  0.7550252778075048
  0.5000000000000000  0.2500000000000000  0.7550252778075048
  0.0000000000000000  0.7500000000000000  0.7550252778075048
  0.5000000000000000  0.7500000000000000  0.7550252778075048
  0.0000000000000000  0.0000000000000000  0.0065153769225290
  0.5000000000000000  0.0000000000000000  0.0065153769225290
  0.0000000000000000  0.5000000000000000  0.0065153769225290
  0.5000000000000000  0.5000000000000000  0.0065153769225290
  0.2500000000000000  0.0000000000000000  0.7565153769225219
  0.7500000000000000  0.0000000000000000  0.7565153769225219
  0.2500000000000000  0.5000000000000000  0.7565153769225219
  0.7500000000000000  0.5000000000000000  0.7565153769225219
  0.2500000000000000  0.2500000000000000  0.5065153769225219
  0.7500000000000000  0.2500000000000000  0.5065153769225219
  0.2500000000000000  0.7500000000000000  0.5065153769225219
  0.7500000000000000  0.7500000000000000  0.5065153769225219
  0.0000000000000000  0.2500000000000000  0.2565153769225290
  0.5000000000000000  0.2500000000000000  0.2565153769225290
  0.0000000000000000  0.7500000000000000  0.2565153769225290
  0.5000000000000000  0.7500000000000000  0.2565153769225290
 
  0.00000000E+00  0.00000000E+00  0.00000000E+00
  0.00000000E+00  0.00000000E+00  0.00000000E+00
  0.00000000E+00  0.00000000E+00  0.00000000E+00
  0.00000000E+00  0.00000000E+00  0.00000000E+00
  0.00000000E+00  0.00000000E+00  0.00000000E+00
  0.00000000E+00  0.00000000E+00  0.00000000E+00
  0.00000000E+00  0.00000000E+00  0.00000000E+00
  0.00000000E+00  0.00000000E+00  0.00000000E+00
  0.00000000E+00  0.00000000E+00  0.00000000E+00
  0.00000000E+00  0.00000000E+00  0.00000000E+00
  0.00000000E+00  0.00000000E+00  0.00000000E+00
  0.00000000E+00  0.00000000E+00  0.00000000E+00
  0.00000000E+00  0.00000000E+00  0.00000000E+00
  0.00000000E+00  0.00000000E+00  0.00000000E+00
  0.00000000E+00  0.00000000E+00  0.00000000E+00
  0.00000000E+00  0.00000000E+00  0.00000000E+00
  0.00000000E+00  0.00000000E+00  0.00000000E+00
  0.00000000E+00  0.00000000E+00  0.00000000E+00
  0.00000000E+00  0.00000000E+00  0.00000000E+00
  0.00000000E+00  0.00000000E+00  0.00000000E+00
  0.00000000E+00  0.00000000E+00  0.00000000E+00
  0.00000000E+00  0.00000000E+00  0.00000000E+00
  0.00000000E+00  0.00000000E+00  0.00000000E+00
  0.00000000E+00  0.00000000E+00  0.00000000E+00
  0.00000000E+00  0.00000000E+00  0.00000000E+00
  0.00000000E+00  0.00000000E+00  0.00000000E+00
  0.00000000E+00  0.00000000E+00  0.00000000E+00
  0.00000000E+00  0.00000000E+00  0.00000000E+00
  0.00000000E+00  0.00000000E+00  0.00000000E+00
  0.00000000E+00  0.00000000E+00  0.00000000E+00
  0.00000000E+00  0.00000000E+00  0.00000000E+00
  0.00000000E+00  0.00000000E+00  0.00000000E+00
  0.00000000E+00  0.00000000E+00  0.00000000E+00
  0.00000000E+00  0.00000000E+00  0.00000000E+00
  0.00000000E+00  0.00000000E+00  0.00000000E+00
  0.00000000E+00  0.00000000E+00  0.00000000E+00
  0.00000000E+00  0.00000000E+00  0.00000000E+00
  0.00000000E+00  0.00000000E+00  0.00000000E+00
  0.00000000E+00  0.00000000E+00  0.00000000E+00
  0.00000000E+00  0.00000000E+00  0.00000000E+00
  0.00000000E+00  0.00000000E+00  0.00000000E+00
  0.00000000E+00  0.00000000E+00  0.00000000E+00
  0.00000000E+00  0.00000000E+00  0.00000000E+00
  0.00000000E+00  0.00000000E+00  0.00000000E+00
  0.00000000E+00  0.00000000E+00  0.00000000E+00
  0.00000000E+00  0.00000000E+00  0.00000000E+00
  0.00000000E+00  0.00000000E+00  0.00000000E+00
  0.00000000E+00  0.00000000E+00  0.00000000E+00
  0.00000000E+00  0.00000000E+00  0.00000000E+00
  0.00000000E+00  0.00000000E+00  0.00000000E+00
  0.00000000E+00  0.00000000E+00  0.00000000E+00
  0.00000000E+00  0.00000000E+00  0.00000000E+00
  0.00000000E+00  0.00000000E+00  0.00000000E+00
  0.00000000E+00  0.00000000E+00  0.00000000E+00
  0.00000000E+00  0.00000000E+00  0.00000000E+00
  0.00000000E+00  0.00000000E+00  0.00000000E+00
  0.00000000E+00  0.00000000E+00  0.00000000E+00
  0.00000000E+00  0.00000000E+00  0.00000000E+00
  0.00000000E+00  0.00000000E+00  0.00000000E+00
  0.00000000E+00  0.00000000E+00  0.00000000E+00
  0.00000000E+00  0.00000000E+00  0.00000000E+00
  0.00000000E+00  0.00000000E+00  0.00000000E+00
  0.00000000E+00  0.00000000E+00  0.00000000E+00
  0.00000000E+00  0.00000000E+00  0.00000000E+00
