Fe16 Cu16 S32
1.0
10.505926 0.000000 0.458699
0.000000 10.522568 0.000000
0.454115 0.000000 10.400946
S Cu Fe
32 16 16
direct
0.126317 0.119439 0.125862 S
0.626317 0.119439 0.125862 S
0.126317 0.619439 0.125862 S
0.626317 0.619439 0.125862 S
0.373683 0.369439 0.124138 S
0.873683 0.369439 0.124138 S
0.373683 0.869439 0.124138 S
0.873683 0.869439 0.124138 S
0.125000 0.370394 0.875000 S
0.625000 0.370394 0.875000 S
0.125000 0.870394 0.875000 S
0.625000 0.870394 0.875000 S
0.375000 0.122246 0.875000 S
0.875000 0.122246 0.875000 S
0.375000 0.622246 0.875000 S
0.875000 0.622246 0.875000 S
0.123683 0.119439 0.624138 S
0.623683 0.119439 0.624138 S
0.123683 0.619439 0.624138 S
0.623683 0.619439 0.624138 S
0.376317 0.369439 0.625862 S
0.876317 0.369439 0.625862 S
0.376317 0.869439 0.625862 S
0.876317 0.869439 0.625862 S
0.375000 0.120394 0.375000 S
0.875000 0.120394 0.375000 S
0.375000 0.620394 0.375000 S
0.875000 0.620394 0.375000 S
0.125000 0.372246 0.375000 S
0.625000 0.372246 0.375000 S
0.125000 0.872246 0.375000 S
0.625000 0.872246 0.375000 S
-0.001878 0.004707 0.500012 Cu
0.498122 0.004707 0.500012 Cu
-0.001878 0.504707 0.500012 Cu
0.498122 0.504707 0.500012 Cu
0.251878 0.004707 0.249988 Cu
0.751878 0.004707 0.249988 Cu
0.251878 0.504707 0.249988 Cu
0.751878 0.504707 0.249988 Cu
0.248122 0.254707 0.000012 Cu
0.748122 0.254707 0.000012 Cu
0.248122 0.754707 0.000012 Cu
0.748122 0.754707 0.000012 Cu
0.001878 0.254707 0.749988 Cu
0.501878 0.254707 0.749988 Cu
0.001878 0.754707 0.749988 Cu
0.501878 0.754707 0.749988 Cu
-0.001022 0.004533 0.000439 Fe
0.498978 0.004533 0.000439 Fe
-0.001022 0.504533 0.000439 Fe
0.498978 0.504533 0.000439 Fe
0.251022 0.004533 0.749561 Fe
0.751022 0.004533 0.749561 Fe
0.251022 0.504533 0.749561 Fe
0.751022 0.504533 0.749561 Fe
0.248978 0.254533 0.500439 Fe
0.748978 0.254533 0.500439 Fe
0.248978 0.754533 0.500439 Fe
0.748978 0.754533 0.500439 Fe
0.001022 0.254533 0.249561 Fe
0.501022 0.254533 0.249561 Fe
0.001022 0.754533 0.249561 Fe
0.501022 0.754533 0.249561 Fe
