Fe16 Cu16 S32
1.0
10.511931 0.000000 0.183479
0.000000 10.518588 0.000000
0.181646 0.000000 10.406891
S Cu Fe
32 16 16
direct
0.126221 0.122776 0.125345 S
0.626221 0.122776 0.125345 S
0.126221 0.622776 0.125345 S
0.626221 0.622776 0.125345 S
0.373779 0.372776 0.124655 S
0.873779 0.372776 0.124655 S
0.373779 0.872776 0.124655 S
0.873779 0.872776 0.124655 S
0.125000 0.372463 0.875000 S
0.625000 0.372463 0.875000 S
0.125000 0.872463 0.875000 S
0.625000 0.872463 0.875000 S
0.375000 0.124593 0.875000 S
0.875000 0.124593 0.875000 S
0.375000 0.624593 0.875000 S
0.875000 0.624593 0.875000 S
0.123779 0.122776 0.624655 S
0.623779 0.122776 0.624655 S
0.123779 0.622776 0.624655 S
0.623779 0.622776 0.624655 S
0.376221 0.372776 0.625345 S
0.876221 0.372776 0.625345 S
0.376221 0.872776 0.625345 S
0.876221 0.872776 0.625345 S
0.375000 0.122463 0.375000 S
0.875000 0.122463 0.375000 S
0.375000 0.622463 0.375000 S
0.875000 0.622463 0.375000 S
0.125000 0.374593 0.375000 S
0.625000 0.374593 0.375000 S
0.125000 0.874593 0.375000 S
0.625000 0.874593 0.375000 S
-0.000751 0.001883 0.500005 Cu
0.499249 0.001883 0.500005 Cu
-0.000751 0.501883 0.500005 Cu
0.499249 0.501883 0.500005 Cu
0.250751 0.001883 0.249995 Cu
0.750751 0.001883 0.249995 Cu
0.250751 0.501883 0.249995 Cu
0.750751 0.501883 0.249995 Cu
0.249249 0.251883 0.000005 Cu
0.749249 0.251883 0.000005 Cu
0.249249 0.751883 0.000005 Cu
0.749249 0.751883 0.000005 Cu
0.000751 0.251883 0.749995 Cu
0.500751 0.251883 0.749995 Cu
0.000751 0.751883 0.749995 Cu
0.500751 0.751883 0.749995 Cu
-0.000409 0.001813 0.000176 Fe
0.499591 0.001813 0.000176 Fe
-0.000409 0.501813 0.000176 Fe
0.499591 0.501813 0.000176 Fe
0.250409 0.001813 0.749824 Fe
0.750409 0.001813 0.749824 Fe
0.250409 0.501813 0.749824 Fe
0.750409 0.501813 0.749824 Fe
0.249591 0.251813 0.500176 Fe
0.749591 0.251813 0.500176 Fe
0.249591 0.751813 0.500176 Fe
0.749591 0.751813 0.500176 Fe
0.000409 0.251813 0.249824 Fe
0.500409 0.251813 0.249824 Fe
0.000409 0.751813 0.249824 Fe
0.500409 0.751813 0.249824 Fe
