Fe16 Cu16 S32                           
   1.00000000000000     
    10.4879239999999996    0.6415670000000000    0.0000000000000000
     0.6415670000000000   10.4879239999999996    0.0000000000000000
     0.0000000000000000    0.0000000000000000   10.4414520820676504
   S    Cu   Fe
    32    16    16
Direct
  0.1260507448519519  0.1256941036679819  0.1183096265774424
  0.6260507448519519  0.1256941036679819  0.1183096265774424
  0.1260507448519519  0.6256941036679819  0.1183096265774424
  0.6260507448519519  0.6256941036679819  0.1183096265774424
  0.3739492551480481  0.3743058963320109  0.1183096265774424
  0.8739492551480481  0.3743058963320109  0.1183096265774424
  0.3739492551480481  0.8743058963320181  0.1183096265774424
  0.8739492551480481  0.8743058963320181  0.1183096265774424
  0.1243058963320181  0.3739492551480481  0.8683096265774282
  0.6243058963320181  0.3739492551480481  0.8683096265774282
  0.1243058963320181  0.8739492551480481  0.8683096265774282
  0.6243058963320181  0.8739492551480481  0.8683096265774282
  0.3756941036679891  0.1260507448519519  0.8683096265774282
  0.8756941036679819  0.1260507448519519  0.8683096265774282
  0.3756941036679891  0.6260507448519519  0.8683096265774282
  0.8756941036679819  0.6260507448519519  0.8683096265774282
  0.1239492551480481  0.1243058963320181  0.6183096265774282
  0.6239492551480481  0.1243058963320181  0.6183096265774282
  0.1239492551480481  0.6243058963320181  0.6183096265774282
  0.6239492551480481  0.6243058963320181  0.6183096265774282
  0.3760507448519519  0.3756941036679891  0.6183096265774282
  0.8760507448519519  0.3756941036679891  0.6183096265774282
  0.3760507448519519  0.8756941036679819  0.6183096265774282
  0.8760507448519519  0.8756941036679819  0.6183096265774282
  0.3743058963320109  0.1239492551480481  0.3683096265774353
  0.8743058963320181  0.1239492551480481  0.3683096265774353
  0.3743058963320109  0.6239492551480481  0.3683096265774353
  0.8743058963320181  0.6239492551480481  0.3683096265774353
  0.1256941036679819  0.3760507448519519  0.3683096265774353
  0.6256941036679819  0.3760507448519519  0.3683096265774353
  0.1256941036679819  0.8760507448519519  0.3683096265774353
  0.6256941036679819  0.8760507448519519  0.3683096265774353
  0.0000000000000000  0.0000000000000000  0.5058026966294946
  0.5000000000000000  0.0000000000000000  0.5058026966294946
  0.0000000000000000  0.5000000000000000  0.5058026966294946
  0.5000000000000000  0.5000000000000000  0.5058026966294946
  0.2500000000000000  0.0000000000000000  0.2558026966295017
  0.7500000000000000  0.0000000000000000  0.2558026966295017
  0.2500000000000000  0.5000000000000000  0.2558026966295017
  0.7500000000000000  0.5000000000000000  0.2558026966295017
  0.2500000000000000  0.2500000000000000  0.0058026966294946
  0.7500000000000000  0.2500000000000000  0.0058026966294946
  0.2500000000000000  0.7500000000000000  0.0058026966294946
  0.7500000000000000  0.7500000000000000  0.0058026966294946
  0.0000000000000000  0.2500000000000000  0.7558026966294946
  0.5000000000000000  0.2500000000000000  0.7558026966294946
  0.0000000000000000  0.7500000000000000  0.7558026966294946
  0.5000000000000000  0.7500000000000000  0.7558026966294946
  0.0000000000000000  0.0000000000000000  0.0075780502156348
  0.5000000000000000  0.0000000000000000  0.0075780502156348
  0.0000000000000000  0.5000000000000000  0.0075780502156348
  0.5000000000000000  0.5000000000000000  0.0075780502156348
  0.2500000000000000  0.0000000000000000  0.7575780502156206
  0.7500000000000000  0.0000000000000000  0.7575780502156206
  0.2500000000000000  0.5000000000000000  0.7575780502156206
  0.7500000000000000  0.5000000000000000  0.7575780502156206
  0.2500000000000000  0.2500000000000000  0.5075780502156206
  0.7500000000000000  0.2500000000000000  0.5075780502156206
  0.2500000000000000  0.7500000000000000  0.5075780502156206
  0.7500000000000000  0.7500000000000000  0.5075780502156206
  0.0000000000000000  0.2500000000000000  0.2575780502156348
  0.5000000000000000  0.2500000000000000  0.2575780502156348
  0.0000000000000000  0.7500000000000000  0.2575780502156348
  0.5000000000000000  0.7500000000000000  0.2575780502156348
 
  0.00000000E+00  0.00000000E+00  0.00000000E+00
  0.00000000E+00  0.00000000E+00  0.00000000E+00
  0.00000000E+00  0.00000000E+00  0.00000000E+00
  0.00000000E+00  0.00000000E+00  0.00000000E+00
  0.00000000E+00  0.00000000E+00  0.00000000E+00
  0.00000000E+00  0.00000000E+00  0.00000000E+00
  0.00000000E+00  0.00000000E+00  0.00000000E+00
  0.00000000E+00  0.00000000E+00  0.00000000E+00
  0.00000000E+00  0.00000000E+00  0.00000000E+00
  0.00000000E+00  0.00000000E+00  0.00000000E+00
  0.00000000E+00  0.00000000E+00  0.00000000E+00
  0.00000000E+00  0.00000000E+00  0.00000000E+00
  0.00000000E+00  0.00000000E+00  0.00000000E+00
  0.00000000E+00  0.00000000E+00  0.00000000E+00
  0.00000000E+00  0.00000000E+00  0.00000000E+00
  0.00000000E+00  0.00000000E+00  0.00000000E+00
  0.00000000E+00  0.00000000E+00  0.00000000E+00
  0.00000000E+00  0.00000000E+00  0.00000000E+00
  0.00000000E+00  0.00000000E+00  0.00000000E+00
  0.00000000E+00  0.00000000E+00  0.00000000E+00
  0.00000000E+00  0.00000000E+00  0.00000000E+00
  0.00000000E+00  0.00000000E+00  0.00000000E+00
  0.00000000E+00  0.00000000E+00  0.00000000E+00
  0.00000000E+00  0.00000000E+00  0.00000000E+00
  0.00000000E+00  0.00000000E+00  0.00000000E+00
  0.00000000E+00  0.00000000E+00  0.00000000E+00
  0.00000000E+00  0.00000000E+00  0.00000000E+00
  0.00000000E+00  0.00000000E+00  0.00000000E+00
  0.00000000E+00  0.00000000E+00  0.00000000E+00
  0.00000000E+00  0.00000000E+00  0.00000000E+00
  0.00000000E+00  0.00000000E+00  0.00000000E+00
  0.00000000E+00  0.00000000E+00  0.00000000E+00
  0.00000000E+00  0.00000000E+00  0.00000000E+00
  0.00000000E+00  0.00000000E+00  0.00000000E+00
  0.00000000E+00  0.00000000E+00  0.00000000E+00
  0.00000000E+00  0.00000000E+00  0.00000000E+00
  0.00000000E+00  0.00000000E+00  0.00000000E+00
  0.00000000E+00  0.00000000E+00  0.00000000E+00
  0.00000000E+00  0.00000000E+00  0.00000000E+00
  0.00000000E+00  0.00000000E+00  0.00000000E+00
  0.00000000E+00  0.00000000E+00  0.00000000E+00
  0.00000000E+00  0.00000000E+00  0.00000000E+00
  0.00000000E+00  0.00000000E+00  0.00000000E+00
  0.00000000E+00  0.00000000E+00  0.00000000E+00
  0.00000000E+00  0.00000000E+00  0.00000000E+00
  0.00000000E+00  0.00000000E+00  0.00000000E+00
  0.00000000E+00  0.00000000E+00  0.00000000E+00
  0.00000000E+00  0.00000000E+00  0.00000000E+00
  0.00000000E+00  0.00000000E+00  0.00000000E+00
  0.00000000E+00  0.00000000E+00  0.00000000E+00
  0.00000000E+00  0.00000000E+00  0.00000000E+00
  0.00000000E+00  0.00000000E+00  0.00000000E+00
  0.00000000E+00  0.00000000E+00  0.00000000E+00
  0.00000000E+00  0.00000000E+00  0.00000000E+00
  0.00000000E+00  0.00000000E+00  0.00000000E+00
  0.00000000E+00  0.00000000E+00  0.00000000E+00
  0.00000000E+00  0.00000000E+00  0.00000000E+00
  0.00000000E+00  0.00000000E+00  0.00000000E+00
  0.00000000E+00  0.00000000E+00  0.00000000E+00
  0.00000000E+00  0.00000000E+00  0.00000000E+00
  0.00000000E+00  0.00000000E+00  0.00000000E+00
  0.00000000E+00  0.00000000E+00  0.00000000E+00
  0.00000000E+00  0.00000000E+00  0.00000000E+00
  0.00000000E+00  0.00000000E+00  0.00000000E+00
