Fe16 Cu16 S32
1.0
10.503930 0.274957 0.000000
0.274957 10.503930 0.000000
0.000000 0.000000 10.426090
S Cu Fe
32 16 16
direct
0.126140 0.125333 0.122080 S
0.626140 0.125333 0.122080 S
0.126140 0.625333 0.122080 S
0.626140 0.625333 0.122080 S
0.373860 0.374667 0.122080 S
0.873860 0.374667 0.122080 S
0.373860 0.874667 0.122080 S
0.873860 0.874667 0.122080 S
0.124667 0.373860 0.872080 S
0.624667 0.373860 0.872080 S
0.124667 0.873860 0.872080 S
0.624667 0.873860 0.872080 S
0.375333 0.126140 0.872080 S
0.875333 0.126140 0.872080 S
0.375333 0.626140 0.872080 S
0.875333 0.626140 0.872080 S
0.123860 0.124667 0.622080 S
0.623860 0.124667 0.622080 S
0.123860 0.624667 0.622080 S
0.623860 0.624667 0.622080 S
0.376140 0.375333 0.622080 S
0.876140 0.375333 0.622080 S
0.376140 0.875333 0.622080 S
0.876140 0.875333 0.622080 S
0.374667 0.123860 0.372080 S
0.874667 0.123860 0.372080 S
0.374667 0.623860 0.372080 S
0.874667 0.623860 0.372080 S
0.125333 0.376140 0.372080 S
0.625333 0.376140 0.372080 S
0.125333 0.876140 0.372080 S
0.625333 0.876140 0.372080 S
0.000000 0.000000 0.502487 Cu
0.500000 0.000000 0.502487 Cu
0.000000 0.500000 0.502487 Cu
0.500000 0.500000 0.502487 Cu
0.250000 0.000000 0.252487 Cu
0.750000 0.000000 0.252487 Cu
0.250000 0.500000 0.252487 Cu
0.750000 0.500000 0.252487 Cu
0.250000 0.250000 0.002487 Cu
0.750000 0.250000 0.002487 Cu
0.250000 0.750000 0.002487 Cu
0.750000 0.750000 0.002487 Cu
0.000000 0.250000 0.752487 Cu
0.500000 0.250000 0.752487 Cu
0.000000 0.750000 0.752487 Cu
0.500000 0.750000 0.752487 Cu
0.000000 0.000000 0.003352 Fe
0.500000 0.000000 0.003352 Fe
0.000000 0.500000 0.003352 Fe
0.500000 0.500000 0.003352 Fe
0.250000 0.000000 0.753352 Fe
0.750000 0.000000 0.753352 Fe
0.250000 0.500000 0.753352 Fe
0.750000 0.500000 0.753352 Fe
0.250000 0.250000 0.503352 Fe
0.750000 0.250000 0.503352 Fe
0.250000 0.750000 0.503352 Fe
0.750000 0.750000 0.503352 Fe
0.000000 0.250000 0.253352 Fe
0.500000 0.250000 0.253352 Fe
0.000000 0.750000 0.253352 Fe
0.500000 0.750000 0.253352 Fe
