Fe16 Cu16 S32
1.0
10.511933 0.000000 0.091652
0.000000 10.519221 -0.000000
0.090737 -0.000000 10.406892
S Cu Fe
32 16 16
direct
0.126235 0.123848 0.125163 S
0.626235 0.123848 0.125163 S
0.126235 0.623848 0.125163 S
0.626235 0.623848 0.125163 S
0.373765 0.373848 0.124837 S
0.873765 0.373848 0.124837 S
0.373765 0.873848 0.124837 S
0.873765 0.873848 0.124837 S
0.125000 0.373293 0.875000 S
0.625000 0.373293 0.875000 S
0.125000 0.873293 0.875000 S
0.625000 0.873293 0.875000 S
0.375000 0.125422 0.875000 S
0.875000 0.125422 0.875000 S
0.375000 0.625422 0.875000 S
0.875000 0.625422 0.875000 S
0.123765 0.123848 0.624837 S
0.623765 0.123848 0.624837 S
0.123765 0.623848 0.624837 S
0.623765 0.623848 0.624837 S
0.376235 0.373848 0.625163 S
0.876235 0.373848 0.625163 S
0.376235 0.873848 0.625163 S
0.876235 0.873848 0.625163 S
0.375000 0.123293 0.375000 S
0.875000 0.123293 0.375000 S
0.375000 0.623293 0.375000 S
0.875000 0.623293 0.375000 S
0.125000 0.375422 0.375000 S
0.625000 0.375422 0.375000 S
0.125000 0.875422 0.375000 S
0.625000 0.875422 0.375000 S
-0.000489 0.000896 0.500011 Cu
0.499511 0.000896 0.500011 Cu
-0.000489 0.500896 0.500011 Cu
0.499511 0.500896 0.500011 Cu
0.250489 0.000896 0.249989 Cu
0.750489 0.000896 0.249989 Cu
0.250489 0.500896 0.249989 Cu
0.750489 0.500896 0.249989 Cu
0.249511 0.250896 0.000011 Cu
0.749511 0.250896 0.000011 Cu
0.249511 0.750896 0.000011 Cu
0.749511 0.750896 0.000011 Cu
0.000489 0.250896 0.749989 Cu
0.500489 0.250896 0.749989 Cu
0.000489 0.750896 0.749989 Cu
0.500489 0.750896 0.749989 Cu
-0.000313 0.000898 0.000222 Fe
0.499687 0.000898 0.000222 Fe
-0.000313 0.500898 0.000222 Fe
0.499687 0.500898 0.000222 Fe
0.250313 0.000898 0.749778 Fe
0.750313 0.000898 0.749778 Fe
0.250313 0.500898 0.749778 Fe
0.750313 0.500898 0.749778 Fe
0.249687 0.250898 0.500222 Fe
0.749687 0.250898 0.500222 Fe
0.249687 0.750898 0.500222 Fe
0.749687 0.750898 0.500222 Fe
0.000313 0.250898 0.249778 Fe
0.500313 0.250898 0.249778 Fe
0.000313 0.750898 0.249778 Fe
0.500313 0.750898 0.249778 Fe
