Fe16 Cu16 S32
1.0
10.504163 0.000000 0.385189
0.000000 10.524622 0.000000
0.381340 0.000000 10.399200
S Cu Fe
32 16 16
direct
0.126362 0.120297 0.125696 S
0.626362 0.120297 0.125696 S
0.126362 0.620297 0.125696 S
0.626362 0.620297 0.125696 S
0.373638 0.370297 0.124304 S
0.873638 0.370297 0.124304 S
0.373638 0.870297 0.124304 S
0.873638 0.870297 0.124304 S
0.125000 0.371145 0.875000 S
0.625000 0.371145 0.875000 S
0.125000 0.871145 0.875000 S
0.625000 0.871145 0.875000 S
0.375000 0.122904 0.875000 S
0.875000 0.122904 0.875000 S
0.375000 0.622904 0.875000 S
0.875000 0.622904 0.875000 S
0.123638 0.120297 0.624304 S
0.623638 0.120297 0.624304 S
0.123638 0.620297 0.624304 S
0.623638 0.620297 0.624304 S
0.376362 0.370297 0.625696 S
0.876362 0.370297 0.625696 S
0.376362 0.870297 0.625696 S
0.876362 0.870297 0.625696 S
0.375000 0.121145 0.375000 S
0.875000 0.121145 0.375000 S
0.375000 0.621145 0.375000 S
0.875000 0.621145 0.375000 S
0.125000 0.372904 0.375000 S
0.625000 0.372904 0.375000 S
0.125000 0.872904 0.375000 S
0.625000 0.872904 0.375000 S
-0.001704 0.003893 0.500007 Cu
0.498296 0.003893 0.500007 Cu
-0.001704 0.503893 0.500007 Cu
0.498296 0.503893 0.500007 Cu
0.251704 0.003893 0.249993 Cu
0.751704 0.003893 0.249993 Cu
0.251704 0.503893 0.249993 Cu
0.751704 0.503893 0.249993 Cu
0.248296 0.253893 0.000007 Cu
0.748296 0.253893 0.000007 Cu
0.248296 0.753893 0.000007 Cu
0.748296 0.753893 0.000007 Cu
0.001704 0.253893 0.749993 Cu
0.501704 0.253893 0.749993 Cu
0.001704 0.753893 0.749993 Cu
0.501704 0.753893 0.749993 Cu
-0.000990 0.003785 0.000561 Fe
0.499010 0.003785 0.000561 Fe
-0.000990 0.503785 0.000561 Fe
0.499010 0.503785 0.000561 Fe
0.250990 0.003785 0.749439 Fe
0.750990 0.003785 0.749439 Fe
0.250990 0.503785 0.749439 Fe
0.750990 0.503785 0.749439 Fe
0.249010 0.253785 0.500561 Fe
0.749010 0.253785 0.500561 Fe
0.249010 0.753785 0.500561 Fe
0.749010 0.753785 0.500561 Fe
0.000990 0.253785 0.249439 Fe
0.500990 0.253785 0.249439 Fe
0.000990 0.753785 0.249439 Fe
0.500990 0.753785 0.249439 Fe
