Fe16 Cu16 S32
1.0
10.514934 0.000000 0.045870
0.000000 10.516598 0.000000
0.045412 0.000000 10.409863
S Cu Fe
32 16 16
direct
0.126173 0.124444 0.125086 S
0.626173 0.124444 0.125086 S
0.126173 0.624444 0.125086 S
0.626173 0.624444 0.125086 S
0.373827 0.374444 0.124914 S
0.873827 0.374444 0.124914 S
0.373827 0.874444 0.124914 S
0.873827 0.874444 0.124914 S
0.125000 0.373498 0.875000 S
0.625000 0.373498 0.875000 S
0.125000 0.873498 0.875000 S
0.625000 0.873498 0.875000 S
0.375000 0.125766 0.875000 S
0.875000 0.125766 0.875000 S
0.375000 0.625766 0.875000 S
0.875000 0.625766 0.875000 S
0.123827 0.124444 0.624914 S
0.623827 0.124444 0.624914 S
0.123827 0.624444 0.624914 S
0.623827 0.624444 0.624914 S
0.376173 0.374444 0.625086 S
0.876173 0.374444 0.625086 S
0.376173 0.874444 0.625086 S
0.876173 0.874444 0.625086 S
0.375000 0.123498 0.375000 S
0.875000 0.123498 0.375000 S
0.375000 0.623498 0.375000 S
0.875000 0.623498 0.375000 S
0.125000 0.375766 0.375000 S
0.625000 0.375766 0.375000 S
0.125000 0.875766 0.375000 S
0.625000 0.875766 0.375000 S
-0.000188 0.000471 0.500001 Cu
0.499812 0.000471 0.500001 Cu
-0.000188 0.500471 0.500001 Cu
0.499812 0.500471 0.500001 Cu
0.250188 0.000471 0.249999 Cu
0.750188 0.000471 0.249999 Cu
0.250188 0.500471 0.249999 Cu
0.750188 0.500471 0.249999 Cu
0.249812 0.250471 0.000001 Cu
0.749812 0.250471 0.000001 Cu
0.249812 0.750471 0.000001 Cu
0.749812 0.750471 0.000001 Cu
0.000188 0.250471 0.749999 Cu
0.500188 0.250471 0.749999 Cu
0.000188 0.750471 0.749999 Cu
0.500188 0.750471 0.749999 Cu
-0.000102 0.000453 0.000044 Fe
0.499898 0.000453 0.000044 Fe
-0.000102 0.500453 0.000044 Fe
0.499898 0.500453 0.000044 Fe
0.250102 0.000453 0.749956 Fe
0.750102 0.000453 0.749956 Fe
0.250102 0.500453 0.749956 Fe
0.750102 0.500453 0.749956 Fe
0.249898 0.250453 0.500044 Fe
0.749898 0.250453 0.500044 Fe
0.249898 0.750453 0.500044 Fe
0.749898 0.750453 0.500044 Fe
0.000102 0.250453 0.249956 Fe
0.500102 0.250453 0.249956 Fe
0.000102 0.750453 0.249956 Fe
0.500102 0.750453 0.249956 Fe
