sm_isp_SD0310437-standardized_unitcell  
   1.00000000000000     
     5.0484342292993238    0.0000000000000000    0.0000000000000000
     0.0000000000000000    5.5503723505342331    0.0000000000000000
     0.0000000000000000    0.0000000000000000    9.9920013545345263
   S    Cu   Fe
     8     4     4
Direct
  0.2518109185999649  0.2500000000000000  0.1250000000000000
  0.7481891114000376  0.7500000000000000  0.1250000000000000
  0.2500000000000000  0.7470282841985636  0.8750000000000000
  0.7500000000000000  0.2529717458014247  0.8750000000000000
  0.2481890814000280  0.2500000000000000  0.6250000000000000
  0.7518108885999624  0.7500000000000000  0.6250000000000000
  0.7500000000000000  0.2470282541985682  0.3750000000000000
  0.2500000000000000  0.7529717158014364  0.3750000000000000
  0.0000000000000000  0.0000000000000000  0.5010233276910370
  0.5000000000000000  0.0000000000000000  0.2489766723089701
  0.5000000000000000  0.5000000000000000  0.0010233276910299
  0.0000000000000000  0.5000000000000000  0.7489766723089630
  0.0000000000000000  0.0000000000000000  0.9998571450958096
  0.5000000000000000  0.0000000000000000  0.7501428549041904
  0.5000000000000000  0.5000000000000000  0.4998571450958167
  0.0000000000000000  0.5000000000000000  0.2501428549041833
 
  0.00000000E+00  0.00000000E+00  0.00000000E+00
  0.00000000E+00  0.00000000E+00  0.00000000E+00
  0.00000000E+00  0.00000000E+00  0.00000000E+00
  0.00000000E+00  0.00000000E+00  0.00000000E+00
  0.00000000E+00  0.00000000E+00  0.00000000E+00
  0.00000000E+00  0.00000000E+00  0.00000000E+00
  0.00000000E+00  0.00000000E+00  0.00000000E+00
  0.00000000E+00  0.00000000E+00  0.00000000E+00
  0.00000000E+00  0.00000000E+00  0.00000000E+00
  0.00000000E+00  0.00000000E+00  0.00000000E+00
  0.00000000E+00  0.00000000E+00  0.00000000E+00
  0.00000000E+00  0.00000000E+00  0.00000000E+00
  0.00000000E+00  0.00000000E+00  0.00000000E+00
  0.00000000E+00  0.00000000E+00  0.00000000E+00
  0.00000000E+00  0.00000000E+00  0.00000000E+00
  0.00000000E+00  0.00000000E+00  0.00000000E+00
