Fe16 Cu16 S32
1.0
10.515213 0.000000 0.055055
0.000000 10.516507 0.000000
0.054505 0.000000 10.410140
S Cu Fe
32 16 16
direct
0.126169 0.124343 0.125103 S
0.626169 0.124343 0.125103 S
0.126169 0.624343 0.125103 S
0.626169 0.624343 0.125103 S
0.373831 0.374343 0.124897 S
0.873831 0.374343 0.124897 S
0.373831 0.874343 0.124897 S
0.873831 0.874343 0.124897 S
0.125000 0.373400 0.875000 S
0.625000 0.373400 0.875000 S
0.125000 0.873400 0.875000 S
0.625000 0.873400 0.875000 S
0.375000 0.125681 0.875000 S
0.875000 0.125681 0.875000 S
0.375000 0.625681 0.875000 S
0.875000 0.625681 0.875000 S
0.123831 0.124343 0.624897 S
0.623831 0.124343 0.624897 S
0.123831 0.624343 0.624897 S
0.623831 0.624343 0.624897 S
0.376169 0.374343 0.625103 S
0.876169 0.374343 0.625103 S
0.376169 0.874343 0.625103 S
0.876169 0.874343 0.625103 S
0.375000 0.123400 0.375000 S
0.875000 0.123400 0.375000 S
0.375000 0.623400 0.375000 S
0.875000 0.623400 0.375000 S
0.125000 0.375681 0.375000 S
0.625000 0.375681 0.375000 S
0.125000 0.875681 0.375000 S
0.625000 0.875681 0.375000 S
-0.000201 0.000572 0.499998 Cu
0.499799 0.000572 0.499998 Cu
-0.000201 0.500572 0.499998 Cu
0.499799 0.500572 0.499998 Cu
0.250201 0.000572 0.250002 Cu
0.750201 0.000572 0.250002 Cu
0.250201 0.500572 0.250002 Cu
0.750201 0.500572 0.250002 Cu
0.249799 0.250572 -0.000001 Cu
0.749799 0.250572 -0.000001 Cu
0.249799 0.750572 -0.000001 Cu
0.749799 0.750572 -0.000001 Cu
0.000201 0.250572 0.750001 Cu
0.500201 0.250572 0.750001 Cu
0.000201 0.750572 0.750001 Cu
0.500201 0.750572 0.750001 Cu
-0.000104 0.000544 0.000030 Fe
0.499896 0.000544 0.000030 Fe
-0.000104 0.500544 0.000030 Fe
0.499896 0.500544 0.000030 Fe
0.250104 0.000544 0.749970 Fe
0.750104 0.000544 0.749970 Fe
0.250104 0.500544 0.749970 Fe
0.750104 0.500544 0.749970 Fe
0.249896 0.250544 0.500030 Fe
0.749896 0.250544 0.500030 Fe
0.249896 0.750544 0.500030 Fe
0.749896 0.750544 0.500030 Fe
0.000104 0.250544 0.249970 Fe
0.500104 0.250544 0.249970 Fe
0.000104 0.750544 0.249970 Fe
0.500104 0.750544 0.249970 Fe
