sm_isp_SD0310437-standardized_unitcell  
   1.00000000000000     
     5.3113735120753303    0.0000000000000000    0.0000000000000000
     0.0000000000000000    5.1874670855123250    0.0000000000000000
     0.0000000000000000    0.0000000000000000   10.5124180917498666
   S    Cu   Fe
     8     4     4
Direct
  0.2523661458977031  0.2500000000000000  0.1250000000000000
  0.7476338841022923  0.7500000000000000  0.1250000000000000
  0.2500000000000000  0.7476968815562657  0.8750000000000000
  0.7500000000000000  0.2523031484437226  0.8750000000000000
  0.2476338541022898  0.2500000000000000  0.6250000000000000
  0.7523661158977077  0.7500000000000000  0.6250000000000000
  0.7500000000000000  0.2476968515562703  0.3750000000000000
  0.2500000000000000  0.7523031184437343  0.3750000000000000
  0.0000000000000000  0.0000000000000000  0.4998721353354370
  0.5000000000000000  0.0000000000000000  0.2501278646645630
  0.5000000000000000  0.5000000000000000  0.9998721353354441
  0.0000000000000000  0.5000000000000000  0.7501278646645559
  0.0000000000000000  0.0000000000000000  0.9999661492256777
  0.5000000000000000  0.0000000000000000  0.7500338507743223
  0.5000000000000000  0.5000000000000000  0.4999661492256777
  0.0000000000000000  0.5000000000000000  0.2500338507743223
 
  0.00000000E+00  0.00000000E+00  0.00000000E+00
  0.00000000E+00  0.00000000E+00  0.00000000E+00
  0.00000000E+00  0.00000000E+00  0.00000000E+00
  0.00000000E+00  0.00000000E+00  0.00000000E+00
  0.00000000E+00  0.00000000E+00  0.00000000E+00
  0.00000000E+00  0.00000000E+00  0.00000000E+00
  0.00000000E+00  0.00000000E+00  0.00000000E+00
  0.00000000E+00  0.00000000E+00  0.00000000E+00
  0.00000000E+00  0.00000000E+00  0.00000000E+00
  0.00000000E+00  0.00000000E+00  0.00000000E+00
  0.00000000E+00  0.00000000E+00  0.00000000E+00
  0.00000000E+00  0.00000000E+00  0.00000000E+00
  0.00000000E+00  0.00000000E+00  0.00000000E+00
  0.00000000E+00  0.00000000E+00  0.00000000E+00
  0.00000000E+00  0.00000000E+00  0.00000000E+00
  0.00000000E+00  0.00000000E+00  0.00000000E+00
