Fe16 Cu16 S32
1.0
10.492876 0.000000 0.660199
0.000000 10.533931 0.000000
0.653602 0.000000 10.388026
S Cu Fe
32 16 16
direct
0.126576 0.116847 0.126187 S
0.626576 0.116847 0.126187 S
0.126576 0.616847 0.126187 S
0.626576 0.616847 0.126187 S
0.373424 0.366847 0.123813 S
0.873424 0.366847 0.123813 S
0.373424 0.866847 0.123813 S
0.873424 0.866847 0.123813 S
0.125000 0.369448 0.875000 S
0.625000 0.369448 0.875000 S
0.125000 0.869448 0.875000 S
0.625000 0.869448 0.875000 S
0.375000 0.120677 0.875000 S
0.875000 0.120677 0.875000 S
0.375000 0.620677 0.875000 S
0.875000 0.620677 0.875000 S
0.123424 0.116847 0.623813 S
0.623424 0.116847 0.623813 S
0.123424 0.616847 0.623813 S
0.623424 0.616847 0.623813 S
0.376576 0.366847 0.626187 S
0.876576 0.366847 0.626187 S
0.376576 0.866847 0.626187 S
0.876576 0.866847 0.626187 S
0.375000 0.119448 0.375000 S
0.875000 0.119448 0.375000 S
0.375000 0.619448 0.375000 S
0.875000 0.619448 0.375000 S
0.125000 0.370677 0.375000 S
0.625000 0.370677 0.375000 S
0.125000 0.870677 0.375000 S
0.625000 0.870677 0.375000 S
-0.003142 0.006614 0.500029 Cu
0.496858 0.006614 0.500029 Cu
-0.003142 0.506614 0.500029 Cu
0.496858 0.506614 0.500029 Cu
0.253142 0.006614 0.249971 Cu
0.753142 0.006614 0.249971 Cu
0.253142 0.506614 0.249971 Cu
0.753142 0.506614 0.249971 Cu
0.246858 0.256614 0.000029 Cu
0.746858 0.256614 0.000029 Cu
0.246858 0.756614 0.000029 Cu
0.746858 0.756614 0.000029 Cu
0.003142 0.256614 0.749971 Cu
0.503142 0.256614 0.749971 Cu
0.003142 0.756614 0.749971 Cu
0.503142 0.756614 0.749971 Cu
-0.001884 0.006477 0.001162 Fe
0.498116 0.006477 0.001162 Fe
-0.001884 0.506477 0.001162 Fe
0.498116 0.506477 0.001162 Fe
0.251884 0.006477 0.748838 Fe
0.751884 0.006477 0.748838 Fe
0.251884 0.506477 0.748838 Fe
0.751884 0.506477 0.748838 Fe
0.248116 0.256477 0.501162 Fe
0.748116 0.256477 0.501162 Fe
0.248116 0.756477 0.501162 Fe
0.748116 0.756477 0.501162 Fe
0.001884 0.256477 0.248838 Fe
0.501884 0.256477 0.248838 Fe
0.001884 0.756477 0.248838 Fe
0.501884 0.756477 0.248838 Fe
