Fe16 Cu16 S32
1.0
10.514971 0.000000 0.110117
0.000000 10.516605 0.000000
0.109017 0.000000 10.409900
S Cu Fe
32 16 16
direct
0.126170 0.123702 0.125210 S
0.626170 0.123702 0.125210 S
0.126170 0.623702 0.125210 S
0.626170 0.623702 0.125210 S
0.373830 0.373702 0.124790 S
0.873830 0.373702 0.124790 S
0.373830 0.873702 0.124790 S
0.873830 0.873702 0.124790 S
0.125000 0.372929 0.875000 S
0.625000 0.372929 0.875000 S
0.125000 0.872929 0.875000 S
0.625000 0.872929 0.875000 S
0.375000 0.125204 0.875000 S
0.875000 0.125204 0.875000 S
0.375000 0.625204 0.875000 S
0.875000 0.625204 0.875000 S
0.123830 0.123702 0.624790 S
0.623830 0.123702 0.624790 S
0.123830 0.623702 0.624790 S
0.623830 0.623702 0.624790 S
0.376170 0.373702 0.625210 S
0.876170 0.373702 0.625210 S
0.376170 0.873702 0.625210 S
0.876170 0.873702 0.625210 S
0.375000 0.122929 0.375000 S
0.875000 0.122929 0.375000 S
0.375000 0.622929 0.375000 S
0.875000 0.622929 0.375000 S
0.125000 0.375204 0.375000 S
0.625000 0.375204 0.375000 S
0.125000 0.875204 0.375000 S
0.625000 0.875204 0.375000 S
-0.000378 0.001139 0.500002 Cu
0.499622 0.001139 0.500002 Cu
-0.000378 0.501139 0.500002 Cu
0.499622 0.501139 0.500002 Cu
0.250378 0.001139 0.249998 Cu
0.750378 0.001139 0.249998 Cu
0.250378 0.501139 0.249998 Cu
0.750378 0.501139 0.249998 Cu
0.249622 0.251139 0.000002 Cu
0.749622 0.251139 0.000002 Cu
0.249622 0.751139 0.000002 Cu
0.749622 0.751139 0.000002 Cu
0.000378 0.251139 0.749998 Cu
0.500378 0.251139 0.749998 Cu
0.000378 0.751139 0.749998 Cu
0.500378 0.751139 0.749998 Cu
-0.000188 0.001093 0.000034 Fe
0.499812 0.001093 0.000034 Fe
-0.000188 0.501093 0.000034 Fe
0.499812 0.501093 0.000034 Fe
0.250188 0.001093 0.749966 Fe
0.750188 0.001093 0.749966 Fe
0.250188 0.501093 0.749966 Fe
0.750188 0.501093 0.749966 Fe
0.249812 0.251093 0.500034 Fe
0.749812 0.251093 0.500034 Fe
0.249812 0.751093 0.500034 Fe
0.749812 0.751093 0.500034 Fe
0.000188 0.251093 0.249966 Fe
0.500188 0.251093 0.249966 Fe
0.000188 0.751093 0.249966 Fe
0.500188 0.751093 0.249966 Fe
