Fe16 Cu16 S32
1.0
10.514493 0.000000 0.055036
0.000000 10.516935 0.000000
0.054486 0.000000 10.409427
S Cu Fe
32 16 16
direct
0.126182 0.124331 0.125101 S
0.626182 0.124331 0.125101 S
0.126182 0.624331 0.125101 S
0.626182 0.624331 0.125101 S
0.373818 0.374331 0.124899 S
0.873818 0.374331 0.124899 S
0.373818 0.874331 0.124899 S
0.873818 0.874331 0.124899 S
0.125000 0.373443 0.875000 S
0.625000 0.373443 0.875000 S
0.125000 0.873443 0.875000 S
0.625000 0.873443 0.875000 S
0.375000 0.125689 0.875000 S
0.875000 0.125689 0.875000 S
0.375000 0.625689 0.875000 S
0.875000 0.625689 0.875000 S
0.123818 0.124331 0.624899 S
0.623818 0.124331 0.624899 S
0.123818 0.624331 0.624899 S
0.623818 0.624331 0.624899 S
0.376182 0.374331 0.625101 S
0.876182 0.374331 0.625101 S
0.376182 0.874331 0.625101 S
0.876182 0.874331 0.625101 S
0.375000 0.123443 0.375000 S
0.875000 0.123443 0.375000 S
0.375000 0.623443 0.375000 S
0.875000 0.623443 0.375000 S
0.125000 0.375689 0.375000 S
0.625000 0.375689 0.375000 S
0.125000 0.875689 0.375000 S
0.625000 0.875689 0.375000 S
-0.000233 0.000561 0.499999 Cu
0.499767 0.000561 0.499999 Cu
-0.000233 0.500561 0.499999 Cu
0.499767 0.500561 0.499999 Cu
0.250233 0.000561 0.250001 Cu
0.750233 0.000561 0.250001 Cu
0.250233 0.500561 0.250001 Cu
0.750233 0.500561 0.250001 Cu
0.249767 0.250561 -0.000001 Cu
0.749767 0.250561 -0.000001 Cu
0.249767 0.750561 -0.000001 Cu
0.749767 0.750561 -0.000001 Cu
0.000233 0.250561 0.750001 Cu
0.500233 0.250561 0.750001 Cu
0.000233 0.750561 0.750001 Cu
0.500233 0.750561 0.750001 Cu
-0.000132 0.000542 0.000067 Fe
0.499868 0.000542 0.000067 Fe
-0.000132 0.500542 0.000067 Fe
0.499868 0.500542 0.000067 Fe
0.250132 0.000542 0.749933 Fe
0.750132 0.000542 0.749933 Fe
0.250132 0.500542 0.749933 Fe
0.750132 0.500542 0.749933 Fe
0.249868 0.250542 0.500067 Fe
0.749868 0.250542 0.500067 Fe
0.249868 0.750542 0.500067 Fe
0.749868 0.750542 0.500067 Fe
0.000132 0.250542 0.249933 Fe
0.500132 0.250542 0.249933 Fe
0.000132 0.750542 0.249933 Fe
0.500132 0.750542 0.249933 Fe
