Fe16 Cu16 S32                           
   1.00000000000000     
    10.4759189999999993    0.9165240000000000    0.0000000000000000
     0.9165240000000000   10.4759189999999993    0.0000000000000000
     0.0000000000000000    0.0000000000000000   10.4509277684028650
   S    Cu   Fe
    32    16    16
Direct
  0.1259791024690955  0.1259025363771471  0.1156288889904644
  0.6259791024690884  0.1259025363771471  0.1156288889904644
  0.1259791024690955  0.6259025363771542  0.1156288889904644
  0.6259791024690884  0.6259025363771542  0.1156288889904644
  0.3740208975309116  0.3740974636228529  0.1156288889904644
  0.8740208975309116  0.3740974636228529  0.1156288889904644
  0.3740208975309116  0.8740974636228458  0.1156288889904644
  0.8740208975309116  0.8740974636228458  0.1156288889904644
  0.1240974636228529  0.3740208975309116  0.8656288889904573
  0.6240974636228458  0.3740208975309116  0.8656288889904573
  0.1240974636228529  0.8740208975309116  0.8656288889904573
  0.6240974636228458  0.8740208975309116  0.8656288889904573
  0.3759025363771471  0.1259791024690955  0.8656288889904573
  0.8759025363771542  0.1259791024690955  0.8656288889904573
  0.3759025363771471  0.6259791024690884  0.8656288889904573
  0.8759025363771542  0.6259791024690884  0.8656288889904573
  0.1240208975309045  0.1240974636228529  0.6156288889904573
  0.6240208975309116  0.1240974636228529  0.6156288889904573
  0.1240208975309045  0.6240974636228458  0.6156288889904573
  0.6240208975309116  0.6240974636228458  0.6156288889904573
  0.3759791024690884  0.3759025363771471  0.6156288889904573
  0.8759791024690884  0.3759025363771471  0.6156288889904573
  0.3759791024690884  0.8759025363771542  0.6156288889904573
  0.8759791024690884  0.8759025363771542  0.6156288889904573
  0.3740974636228529  0.1240208975309045  0.3656288889904644
  0.8740974636228458  0.1240208975309045  0.3656288889904644
  0.3740974636228529  0.6240208975309116  0.3656288889904644
  0.8740974636228458  0.6240208975309116  0.3656288889904644
  0.1259025363771471  0.3759791024690884  0.3656288889904644
  0.6259025363771542  0.3759791024690884  0.3656288889904644
  0.1259025363771471  0.8759791024690884  0.3656288889904644
  0.6259025363771542  0.8759791024690884  0.3656288889904644
  0.0000000000000000  0.0000000000000000  0.5081986052386682
  0.5000000000000000  0.0000000000000000  0.5081986052386682
  0.0000000000000000  0.5000000000000000  0.5081986052386682
  0.5000000000000000  0.5000000000000000  0.5081986052386682
  0.2500000000000000  0.0000000000000000  0.2581986052386682
  0.7500000000000000  0.0000000000000000  0.2581986052386682
  0.2500000000000000  0.5000000000000000  0.2581986052386682
  0.7500000000000000  0.5000000000000000  0.2581986052386682
  0.2500000000000000  0.2500000000000000  0.0081986052386682
  0.7500000000000000  0.2500000000000000  0.0081986052386682
  0.2500000000000000  0.7500000000000000  0.0081986052386682
  0.7500000000000000  0.7500000000000000  0.0081986052386682
  0.0000000000000000  0.2500000000000000  0.7581986052386682
  0.5000000000000000  0.2500000000000000  0.7581986052386682
  0.0000000000000000  0.7500000000000000  0.7581986052386682
  0.5000000000000000  0.7500000000000000  0.7581986052386682
  0.0000000000000000  0.0000000000000000  0.0105436167804172
  0.5000000000000000  0.0000000000000000  0.0105436167804172
  0.0000000000000000  0.5000000000000000  0.0105436167804172
  0.5000000000000000  0.5000000000000000  0.0105436167804172
  0.2500000000000000  0.0000000000000000  0.7605436167804172
  0.7500000000000000  0.0000000000000000  0.7605436167804172
  0.2500000000000000  0.5000000000000000  0.7605436167804172
  0.7500000000000000  0.5000000000000000  0.7605436167804172
  0.2500000000000000  0.2500000000000000  0.5105436167804172
  0.7500000000000000  0.2500000000000000  0.5105436167804172
  0.2500000000000000  0.7500000000000000  0.5105436167804172
  0.7500000000000000  0.7500000000000000  0.5105436167804172
  0.0000000000000000  0.2500000000000000  0.2605436167804172
  0.5000000000000000  0.2500000000000000  0.2605436167804172
  0.0000000000000000  0.7500000000000000  0.2605436167804172
  0.5000000000000000  0.7500000000000000  0.2605436167804172
 
  0.00000000E+00  0.00000000E+00  0.00000000E+00
  0.00000000E+00  0.00000000E+00  0.00000000E+00
  0.00000000E+00  0.00000000E+00  0.00000000E+00
  0.00000000E+00  0.00000000E+00  0.00000000E+00
  0.00000000E+00  0.00000000E+00  0.00000000E+00
  0.00000000E+00  0.00000000E+00  0.00000000E+00
  0.00000000E+00  0.00000000E+00  0.00000000E+00
  0.00000000E+00  0.00000000E+00  0.00000000E+00
  0.00000000E+00  0.00000000E+00  0.00000000E+00
  0.00000000E+00  0.00000000E+00  0.00000000E+00
  0.00000000E+00  0.00000000E+00  0.00000000E+00
  0.00000000E+00  0.00000000E+00  0.00000000E+00
  0.00000000E+00  0.00000000E+00  0.00000000E+00
  0.00000000E+00  0.00000000E+00  0.00000000E+00
  0.00000000E+00  0.00000000E+00  0.00000000E+00
  0.00000000E+00  0.00000000E+00  0.00000000E+00
  0.00000000E+00  0.00000000E+00  0.00000000E+00
  0.00000000E+00  0.00000000E+00  0.00000000E+00
  0.00000000E+00  0.00000000E+00  0.00000000E+00
  0.00000000E+00  0.00000000E+00  0.00000000E+00
  0.00000000E+00  0.00000000E+00  0.00000000E+00
  0.00000000E+00  0.00000000E+00  0.00000000E+00
  0.00000000E+00  0.00000000E+00  0.00000000E+00
  0.00000000E+00  0.00000000E+00  0.00000000E+00
  0.00000000E+00  0.00000000E+00  0.00000000E+00
  0.00000000E+00  0.00000000E+00  0.00000000E+00
  0.00000000E+00  0.00000000E+00  0.00000000E+00
  0.00000000E+00  0.00000000E+00  0.00000000E+00
  0.00000000E+00  0.00000000E+00  0.00000000E+00
  0.00000000E+00  0.00000000E+00  0.00000000E+00
  0.00000000E+00  0.00000000E+00  0.00000000E+00
  0.00000000E+00  0.00000000E+00  0.00000000E+00
  0.00000000E+00  0.00000000E+00  0.00000000E+00
  0.00000000E+00  0.00000000E+00  0.00000000E+00
  0.00000000E+00  0.00000000E+00  0.00000000E+00
  0.00000000E+00  0.00000000E+00  0.00000000E+00
  0.00000000E+00  0.00000000E+00  0.00000000E+00
  0.00000000E+00  0.00000000E+00  0.00000000E+00
  0.00000000E+00  0.00000000E+00  0.00000000E+00
  0.00000000E+00  0.00000000E+00  0.00000000E+00
  0.00000000E+00  0.00000000E+00  0.00000000E+00
  0.00000000E+00  0.00000000E+00  0.00000000E+00
  0.00000000E+00  0.00000000E+00  0.00000000E+00
  0.00000000E+00  0.00000000E+00  0.00000000E+00
  0.00000000E+00  0.00000000E+00  0.00000000E+00
  0.00000000E+00  0.00000000E+00  0.00000000E+00
  0.00000000E+00  0.00000000E+00  0.00000000E+00
  0.00000000E+00  0.00000000E+00  0.00000000E+00
  0.00000000E+00  0.00000000E+00  0.00000000E+00
  0.00000000E+00  0.00000000E+00  0.00000000E+00
  0.00000000E+00  0.00000000E+00  0.00000000E+00
  0.00000000E+00  0.00000000E+00  0.00000000E+00
  0.00000000E+00  0.00000000E+00  0.00000000E+00
  0.00000000E+00  0.00000000E+00  0.00000000E+00
  0.00000000E+00  0.00000000E+00  0.00000000E+00
  0.00000000E+00  0.00000000E+00  0.00000000E+00
  0.00000000E+00  0.00000000E+00  0.00000000E+00
  0.00000000E+00  0.00000000E+00  0.00000000E+00
  0.00000000E+00  0.00000000E+00  0.00000000E+00
  0.00000000E+00  0.00000000E+00  0.00000000E+00
  0.00000000E+00  0.00000000E+00  0.00000000E+00
  0.00000000E+00  0.00000000E+00  0.00000000E+00
  0.00000000E+00  0.00000000E+00  0.00000000E+00
  0.00000000E+00  0.00000000E+00  0.00000000E+00
