sm_isp_SD0310437-standardized_unitcell  
   1.00000000000000     
     5.1010220858545257    0.0000000000000000    0.0000000000000000
     0.0000000000000000    5.1010220858545257    0.0000000000000000
     0.0000000000000000    0.0000000000000000   10.8750913648418663
   S    Cu   Fe
     8     4     4
Direct
  0.2530655552584165  0.2500000000000000  0.1250000000000000
  0.7469344747415789  0.7500000000000000  0.1250000000000000
  0.2500000000000000  0.7469344747415789  0.8750000000000000
  0.7500000000000000  0.2530655552584165  0.8750000000000000
  0.2469344447415764  0.2500000000000000  0.6250000000000000
  0.7530655252584211  0.7500000000000000  0.6250000000000000
  0.7500000000000000  0.2469344447415764  0.3750000000000000
  0.2500000000000000  0.7530655252584211  0.3750000000000000
  0.0000000000000000  0.0000000000000000  0.5000000000000000
  0.5000000000000000  0.0000000000000000  0.2500000000000000
  0.5000000000000000  0.5000000000000000  0.0000000000000000
  0.0000000000000000  0.5000000000000000  0.7500000000000000
  0.0000000000000000  0.0000000000000000  0.0000000000000000
  0.5000000000000000  0.0000000000000000  0.7500000000000000
  0.5000000000000000  0.5000000000000000  0.5000000000000000
  0.0000000000000000  0.5000000000000000  0.2500000000000000
 
  0.00000000E+00  0.00000000E+00  0.00000000E+00
  0.00000000E+00  0.00000000E+00  0.00000000E+00
  0.00000000E+00  0.00000000E+00  0.00000000E+00
  0.00000000E+00  0.00000000E+00  0.00000000E+00
  0.00000000E+00  0.00000000E+00  0.00000000E+00
  0.00000000E+00  0.00000000E+00  0.00000000E+00
  0.00000000E+00  0.00000000E+00  0.00000000E+00
  0.00000000E+00  0.00000000E+00  0.00000000E+00
  0.00000000E+00  0.00000000E+00  0.00000000E+00
  0.00000000E+00  0.00000000E+00  0.00000000E+00
  0.00000000E+00  0.00000000E+00  0.00000000E+00
  0.00000000E+00  0.00000000E+00  0.00000000E+00
  0.00000000E+00  0.00000000E+00  0.00000000E+00
  0.00000000E+00  0.00000000E+00  0.00000000E+00
  0.00000000E+00  0.00000000E+00  0.00000000E+00
  0.00000000E+00  0.00000000E+00  0.00000000E+00
