Fe16 Cu16 S32
1.0
10.515735 0.000000 0.045884
0.000000 10.516076 -0.000000
0.045425 -0.000000 10.410656
S Cu Fe
32 16 16
direct
0.126161 0.124454 0.125091 S
0.626161 0.124454 0.125091 S
0.126161 0.624454 0.125091 S
0.626161 0.624454 0.125091 S
0.373839 0.374454 0.124909 S
0.873839 0.374454 0.124909 S
0.373839 0.874454 0.124909 S
0.873839 0.874454 0.124909 S
0.125000 0.373465 0.875000 S
0.625000 0.373465 0.875000 S
0.125000 0.873465 0.875000 S
0.625000 0.873465 0.875000 S
0.375000 0.125769 0.875000 S
0.875000 0.125769 0.875000 S
0.375000 0.625769 0.875000 S
0.875000 0.625769 0.875000 S
0.123839 0.124454 0.624909 S
0.623839 0.124454 0.624909 S
0.123839 0.624454 0.624909 S
0.623839 0.624454 0.624909 S
0.376161 0.374454 0.625091 S
0.876161 0.374454 0.625091 S
0.376161 0.874454 0.625091 S
0.876161 0.874454 0.625091 S
0.375000 0.123465 0.375000 S
0.875000 0.123465 0.375000 S
0.375000 0.623465 0.375000 S
0.875000 0.623465 0.375000 S
0.125000 0.375769 0.375000 S
0.625000 0.375769 0.375000 S
0.125000 0.875769 0.375000 S
0.625000 0.875769 0.375000 S
-0.000168 0.000472 0.499998 Cu
0.499832 0.000472 0.499998 Cu
-0.000168 0.500472 0.499998 Cu
0.499832 0.500472 0.499998 Cu
0.250168 0.000472 0.250002 Cu
0.750168 0.000472 0.250002 Cu
0.250168 0.500472 0.250002 Cu
0.750168 0.500472 0.250002 Cu
0.249832 0.250472 -0.000002 Cu
0.749832 0.250472 -0.000002 Cu
0.249832 0.750472 -0.000002 Cu
0.749832 0.750472 -0.000002 Cu
0.000168 0.250472 0.750002 Cu
0.500168 0.250472 0.750002 Cu
0.000168 0.750472 0.750002 Cu
0.500168 0.750472 0.750002 Cu
-0.000083 0.000458 0.000009 Fe
0.499917 0.000458 0.000009 Fe
-0.000083 0.500458 0.000009 Fe
0.499917 0.500458 0.000009 Fe
0.250083 0.000458 0.749991 Fe
0.750083 0.000458 0.749991 Fe
0.250083 0.500458 0.749991 Fe
0.750083 0.500458 0.749991 Fe
0.249917 0.250458 0.500009 Fe
0.749917 0.250458 0.500009 Fe
0.249917 0.750458 0.500009 Fe
0.749917 0.750458 0.500009 Fe
0.000083 0.250458 0.249991 Fe
0.500083 0.250458 0.249991 Fe
0.000083 0.750458 0.249991 Fe
0.500083 0.750458 0.249991 Fe
