Fe16 Cu16 S32
1.0
10.495438 0.000000 0.586843
0.000000 10.531931 0.000000
0.580979 0.000000 10.390562
S Cu Fe
32 16 16
direct
0.126530 0.117753 0.126055 S
0.626530 0.117753 0.126055 S
0.126530 0.617753 0.126055 S
0.626530 0.617753 0.126055 S
0.373470 0.367753 0.123945 S
0.873470 0.367753 0.123945 S
0.373470 0.867753 0.123945 S
0.873470 0.867753 0.123945 S
0.125000 0.369936 0.875000 S
0.625000 0.369936 0.875000 S
0.125000 0.869936 0.875000 S
0.625000 0.869936 0.875000 S
0.375000 0.121286 0.875000 S
0.875000 0.121286 0.875000 S
0.375000 0.621286 0.875000 S
0.875000 0.621286 0.875000 S
0.123470 0.117753 0.623945 S
0.623470 0.117753 0.623945 S
0.123470 0.617753 0.623945 S
0.623470 0.617753 0.623945 S
0.376530 0.367753 0.626055 S
0.876530 0.367753 0.626055 S
0.376530 0.867753 0.626055 S
0.876530 0.867753 0.626055 S
0.375000 0.119936 0.375000 S
0.875000 0.119936 0.375000 S
0.375000 0.619936 0.375000 S
0.875000 0.619936 0.375000 S
0.125000 0.371286 0.375000 S
0.625000 0.371286 0.375000 S
0.125000 0.871286 0.375000 S
0.625000 0.871286 0.375000 S
-0.002793 0.005879 0.500026 Cu
0.497207 0.005879 0.500026 Cu
-0.002793 0.505879 0.500026 Cu
0.497207 0.505879 0.500026 Cu
0.252793 0.005879 0.249974 Cu
0.752793 0.005879 0.249974 Cu
0.252793 0.505879 0.249974 Cu
0.752793 0.505879 0.249974 Cu
0.247207 0.255879 0.000026 Cu
0.747207 0.255879 0.000026 Cu
0.247207 0.755879 0.000026 Cu
0.747207 0.755879 0.000026 Cu
0.002793 0.255879 0.749974 Cu
0.502793 0.255879 0.749974 Cu
0.002793 0.755879 0.749974 Cu
0.502793 0.755879 0.749974 Cu
-0.001675 0.005757 0.001032 Fe
0.498325 0.005757 0.001032 Fe
-0.001675 0.505757 0.001032 Fe
0.498325 0.505757 0.001032 Fe
0.251675 0.005757 0.748968 Fe
0.751675 0.005757 0.748968 Fe
0.251675 0.505757 0.748968 Fe
0.751675 0.505757 0.748968 Fe
0.248325 0.255757 0.501032 Fe
0.748325 0.255757 0.501032 Fe
0.248325 0.755757 0.501032 Fe
0.748325 0.755757 0.501032 Fe
0.001675 0.255757 0.248968 Fe
0.501675 0.255757 0.248968 Fe
0.001675 0.755757 0.248968 Fe
0.501675 0.755757 0.248968 Fe
