Primitive Cell
  1.000000
    0.00000000000000    3.74273599181027    5.20742000000000
    3.69088950840011    0.00000000000000    5.20742000000000
    3.69088950840011    3.74273599181027    0.00000000000000
  S   Cu  Fe
   4   2   2
DIRECT
    0.1234669999999998    0.6280909999999995    0.8740470000000002     S1
    0.6280909999999995    0.1234669999999998    0.3743950000000005     S2
    0.3759529999999999    0.8756049999999994    0.1265330000000001     S3
    0.8756049999999994    0.3759529999999999    0.6219090000000004     S4
    0.9993359999999996    0.9993359999999996    0.5006640000000004    Cu1
    0.7493359999999996    0.7493359999999996    0.2506640000000004    Cu2
    0.4991059999999997    0.4991059999999997    0.0008940000000003    Fe1
    0.2491059999999996    0.2491059999999996    0.7508940000000004    Fe2
