Fe4 Cu4 S8                              
   1.00000000000000     
     5.2487800000000000    0.0000000000000000    0.2291670000000000
     0.0000000000000000    5.2695417453351512    0.0000000000000000
     0.4535730000000000    0.0000000000000000   10.3885310000000004
   S    Cu   Fe
     8     4     4
Direct
  0.2527665899365346  0.2388912497605489  0.1259160461433808
  0.7472334100634654  0.7388912497605489  0.1240839538566192
  0.2500000000000000  0.7407045088472373  0.8750000000000000
  0.7500000000000000  0.2446610340278710  0.8750000000000000
  0.2472334100634654  0.2388912497605489  0.6240839538566121
  0.7527665899365346  0.7388912497605489  0.6259160461433879
  0.7500000000000000  0.2407045088472373  0.3750000000000000
  0.2500000000000000  0.7446610340278710  0.3750000000000000
  0.9961004893657588  0.0093323655261415  0.5000331630285189
  0.5038995106342412  0.0093323655261415  0.2499668369714740
  0.4961004893657659  0.5093323655261415  0.0000331630285260
  0.0038995106342412  0.5093323655261415  0.7499668369714811
  0.9979640881523792  0.0090936132757520  0.0004509959850481
  0.5020359118476279  0.0090936132757520  0.7495490040149519
  0.4979640881523792  0.5090936132757520  0.5004509959850481
  0.0020359118476208  0.5090936132757520  0.2495490040149519
 
  0.00000000E+00  0.00000000E+00  0.00000000E+00
  0.00000000E+00  0.00000000E+00  0.00000000E+00
  0.00000000E+00  0.00000000E+00  0.00000000E+00
  0.00000000E+00  0.00000000E+00  0.00000000E+00
  0.00000000E+00  0.00000000E+00  0.00000000E+00
  0.00000000E+00  0.00000000E+00  0.00000000E+00
  0.00000000E+00  0.00000000E+00  0.00000000E+00
  0.00000000E+00  0.00000000E+00  0.00000000E+00
  0.00000000E+00  0.00000000E+00  0.00000000E+00
  0.00000000E+00  0.00000000E+00  0.00000000E+00
  0.00000000E+00  0.00000000E+00  0.00000000E+00
  0.00000000E+00  0.00000000E+00  0.00000000E+00
  0.00000000E+00  0.00000000E+00  0.00000000E+00
  0.00000000E+00  0.00000000E+00  0.00000000E+00
  0.00000000E+00  0.00000000E+00  0.00000000E+00
  0.00000000E+00  0.00000000E+00  0.00000000E+00
