Fe16 Cu16 S32
1.0
10.515132 0.000000 0.091764
0.000000 10.516494 0.000000
0.090847 0.000000 10.410059
S Cu Fe
32 16 16
direct
0.126168 0.123918 0.125175 S
0.626168 0.123918 0.125175 S
0.126168 0.623918 0.125175 S
0.626168 0.623918 0.125175 S
0.373832 0.373918 0.124825 S
0.873832 0.373918 0.124825 S
0.373832 0.873918 0.124825 S
0.873832 0.873918 0.124825 S
0.125000 0.373082 0.875000 S
0.625000 0.373082 0.875000 S
0.125000 0.873082 0.875000 S
0.625000 0.873082 0.875000 S
0.375000 0.125363 0.875000 S
0.875000 0.125363 0.875000 S
0.375000 0.625363 0.875000 S
0.875000 0.625363 0.875000 S
0.123832 0.123918 0.624825 S
0.623832 0.123918 0.624825 S
0.123832 0.623918 0.624825 S
0.623832 0.623918 0.624825 S
0.376168 0.373918 0.625175 S
0.876168 0.373918 0.625175 S
0.376168 0.873918 0.625175 S
0.876168 0.873918 0.625175 S
0.375000 0.123082 0.375000 S
0.875000 0.123082 0.375000 S
0.375000 0.623082 0.375000 S
0.875000 0.623082 0.375000 S
0.125000 0.375363 0.375000 S
0.625000 0.375363 0.375000 S
0.125000 0.875363 0.375000 S
0.625000 0.875363 0.375000 S
-0.000315 0.000949 0.500002 Cu
0.499685 0.000949 0.500002 Cu
-0.000315 0.500949 0.500002 Cu
0.499685 0.500949 0.500002 Cu
0.250315 0.000949 0.249998 Cu
0.750315 0.000949 0.249998 Cu
0.250315 0.500949 0.249998 Cu
0.750315 0.500949 0.249998 Cu
0.249685 0.250949 0.000002 Cu
0.749685 0.250949 0.000002 Cu
0.249685 0.750949 0.000002 Cu
0.749685 0.750949 0.000002 Cu
0.000315 0.250949 0.749998 Cu
0.500315 0.250949 0.749998 Cu
0.000315 0.750949 0.749998 Cu
0.500315 0.750949 0.749998 Cu
-0.000156 0.000910 0.000029 Fe
0.499844 0.000910 0.000029 Fe
-0.000156 0.500910 0.000029 Fe
0.499844 0.500910 0.000029 Fe
0.250156 0.000910 0.749971 Fe
0.750156 0.000910 0.749971 Fe
0.250156 0.500910 0.749971 Fe
0.750156 0.500910 0.749971 Fe
0.249844 0.250910 0.500029 Fe
0.749844 0.250910 0.500029 Fe
0.249844 0.750910 0.500029 Fe
0.749844 0.750910 0.500029 Fe
0.000156 0.250910 0.249971 Fe
0.500156 0.250910 0.249971 Fe
0.000156 0.750910 0.249971 Fe
0.500156 0.750910 0.249971 Fe
