sm_isp_SD0310437-standardized_unitcell  
   1.00000000000000     
     5.3639613686305321    0.0000000000000000    0.0000000000000000
     0.0000000000000000    5.3639613686305321    0.0000000000000000
     0.0000000000000000    0.0000000000000000   10.1078300942475323
   S    Cu   Fe
     8     4     4
Direct
  0.2518632668905099  0.2500000000000000  0.1250000000000000
  0.7481367631094926  0.7500000000000000  0.1250000000000000
  0.2500000000000000  0.7481367631094926  0.8750000000000000
  0.7500000000000000  0.2518632668905099  0.8750000000000000
  0.2481367331094830  0.2500000000000000  0.6250000000000000
  0.7518632368905074  0.7500000000000000  0.6250000000000000
  0.7500000000000000  0.2481367331094830  0.3750000000000000
  0.2500000000000000  0.7518632368905074  0.3750000000000000
  0.0000000000000000  0.0000000000000000  0.5000000000000000
  0.5000000000000000  0.0000000000000000  0.2500000000000000
  0.5000000000000000  0.5000000000000000  0.0000000000000000
  0.0000000000000000  0.5000000000000000  0.7500000000000000
  0.0000000000000000  0.0000000000000000  0.0000000000000000
  0.5000000000000000  0.0000000000000000  0.7500000000000000
  0.5000000000000000  0.5000000000000000  0.5000000000000000
  0.0000000000000000  0.5000000000000000  0.2500000000000000
 
  0.00000000E+00  0.00000000E+00  0.00000000E+00
  0.00000000E+00  0.00000000E+00  0.00000000E+00
  0.00000000E+00  0.00000000E+00  0.00000000E+00
  0.00000000E+00  0.00000000E+00  0.00000000E+00
  0.00000000E+00  0.00000000E+00  0.00000000E+00
  0.00000000E+00  0.00000000E+00  0.00000000E+00
  0.00000000E+00  0.00000000E+00  0.00000000E+00
  0.00000000E+00  0.00000000E+00  0.00000000E+00
  0.00000000E+00  0.00000000E+00  0.00000000E+00
  0.00000000E+00  0.00000000E+00  0.00000000E+00
  0.00000000E+00  0.00000000E+00  0.00000000E+00
  0.00000000E+00  0.00000000E+00  0.00000000E+00
  0.00000000E+00  0.00000000E+00  0.00000000E+00
  0.00000000E+00  0.00000000E+00  0.00000000E+00
  0.00000000E+00  0.00000000E+00  0.00000000E+00
  0.00000000E+00  0.00000000E+00  0.00000000E+00
