Fe16 Cu16 S32
1.0
10.507932 0.000000 0.183305
0.000000 10.522507 -0.000000
0.181473 -0.000000 10.402931
S Cu Fe
32 16 16
direct
0.126313 0.122695 0.125326 S
0.626313 0.122695 0.125326 S
0.126313 0.622695 0.125326 S
0.626313 0.622695 0.125326 S
0.373687 0.372695 0.124674 S
0.873687 0.372695 0.124674 S
0.373687 0.872695 0.124674 S
0.873687 0.872695 0.124674 S
0.125000 0.372744 0.875000 S
0.625000 0.372744 0.875000 S
0.125000 0.872744 0.875000 S
0.625000 0.872744 0.875000 S
0.375000 0.124686 0.875000 S
0.875000 0.124686 0.875000 S
0.375000 0.624686 0.875000 S
0.875000 0.624686 0.875000 S
0.123687 0.122695 0.624674 S
0.623687 0.122695 0.624674 S
0.123687 0.622695 0.624674 S
0.623687 0.622695 0.624674 S
0.376313 0.372695 0.625326 S
0.876313 0.372695 0.625326 S
0.376313 0.872695 0.625326 S
0.876313 0.872695 0.625326 S
0.375000 0.122744 0.375000 S
0.875000 0.122744 0.375000 S
0.375000 0.622744 0.375000 S
0.875000 0.622744 0.375000 S
0.125000 0.374686 0.375000 S
0.625000 0.374686 0.375000 S
0.125000 0.874686 0.375000 S
0.625000 0.874686 0.375000 S
-0.000979 0.001792 0.500022 Cu
0.499021 0.001792 0.500022 Cu
-0.000979 0.501792 0.500022 Cu
0.499021 0.501792 0.500022 Cu
0.250979 0.001792 0.249978 Cu
0.750979 0.001792 0.249978 Cu
0.250979 0.501792 0.249978 Cu
0.750979 0.501792 0.249978 Cu
0.249021 0.251792 0.000022 Cu
0.749021 0.251792 0.000022 Cu
0.249021 0.751792 0.000022 Cu
0.749021 0.751792 0.000022 Cu
0.000979 0.251792 0.749978 Cu
0.500979 0.251792 0.749978 Cu
0.000979 0.751792 0.749978 Cu
0.500979 0.751792 0.749978 Cu
-0.000627 0.001797 0.000445 Fe
0.499373 0.001797 0.000445 Fe
-0.000627 0.501797 0.000445 Fe
0.499373 0.501797 0.000445 Fe
0.250627 0.001797 0.749555 Fe
0.750627 0.001797 0.749555 Fe
0.250627 0.501797 0.749555 Fe
0.750627 0.501797 0.749555 Fe
0.249373 0.251797 0.500445 Fe
0.749373 0.251797 0.500445 Fe
0.249373 0.751797 0.500445 Fe
0.749373 0.751797 0.500445 Fe
0.000627 0.251797 0.249555 Fe
0.500627 0.251797 0.249555 Fe
0.000627 0.751797 0.249555 Fe
0.500627 0.751797 0.249555 Fe
