Fe16 Cu16 S32
1.0
10.508732 0.164974 0.000000
0.164974 10.508732 0.000000
0.000000 0.000000 10.419996
S Cu Fe
32 16 16
direct
0.126147 0.125200 0.123248 S
0.626147 0.125200 0.123248 S
0.126147 0.625200 0.123248 S
0.626147 0.625200 0.123248 S
0.373853 0.374800 0.123248 S
0.873853 0.374800 0.123248 S
0.373853 0.874800 0.123248 S
0.873853 0.874800 0.123248 S
0.124800 0.373853 0.873248 S
0.624800 0.373853 0.873248 S
0.124800 0.873853 0.873248 S
0.624800 0.873853 0.873248 S
0.375200 0.126147 0.873248 S
0.875200 0.126147 0.873248 S
0.375200 0.626147 0.873248 S
0.875200 0.626147 0.873248 S
0.123853 0.124800 0.623248 S
0.623853 0.124800 0.623248 S
0.123853 0.624800 0.623248 S
0.623853 0.624800 0.623248 S
0.376147 0.375200 0.623248 S
0.876147 0.375200 0.623248 S
0.376147 0.875200 0.623248 S
0.876147 0.875200 0.623248 S
0.374800 0.123853 0.373248 S
0.874800 0.123853 0.373248 S
0.374800 0.623853 0.373248 S
0.874800 0.623853 0.373248 S
0.125200 0.376147 0.373248 S
0.625200 0.376147 0.373248 S
0.125200 0.876147 0.373248 S
0.625200 0.876147 0.373248 S
0.000000 0.000000 0.501492 Cu
0.500000 0.000000 0.501492 Cu
0.000000 0.500000 0.501492 Cu
0.500000 0.500000 0.501492 Cu
0.250000 0.000000 0.251492 Cu
0.750000 0.000000 0.251492 Cu
0.250000 0.500000 0.251492 Cu
0.750000 0.500000 0.251492 Cu
0.250000 0.250000 0.001492 Cu
0.750000 0.250000 0.001492 Cu
0.250000 0.750000 0.001492 Cu
0.750000 0.750000 0.001492 Cu
0.000000 0.250000 0.751492 Cu
0.500000 0.250000 0.751492 Cu
0.000000 0.750000 0.751492 Cu
0.500000 0.750000 0.751492 Cu
0.000000 0.000000 0.002011 Fe
0.500000 0.000000 0.002011 Fe
0.000000 0.500000 0.002011 Fe
0.500000 0.500000 0.002011 Fe
0.250000 0.000000 0.752011 Fe
0.750000 0.000000 0.752011 Fe
0.250000 0.500000 0.752011 Fe
0.750000 0.500000 0.752011 Fe
0.250000 0.250000 0.502011 Fe
0.750000 0.250000 0.502011 Fe
0.250000 0.750000 0.502011 Fe
0.750000 0.750000 0.502011 Fe
0.000000 0.250000 0.252011 Fe
0.500000 0.250000 0.252011 Fe
0.000000 0.750000 0.252011 Fe
0.500000 0.750000 0.252011 Fe
