generated by phonopy                    
   1.00000000000000     
    10.5159349441999996    0.0000000000000000    0.0000000000000000
     0.0000000000000000   10.5225678906172586    0.0000000000000000
     0.9073657426000000    0.0000000000000000   10.3712378957000002
   S    Cu   Fe
    32    16    16
Direct
  0.1263171237396250  0.1194394898641136  0.1258621422832249
  0.6263171087396202  0.1194394898641136  0.1258621422832249
  0.1263171237396250  0.6194394898641065  0.1258621422832249
  0.6263171087396202  0.6194394898641065  0.1258621422832249
  0.3736828912603727  0.3694394898641136  0.1241378577167822
  0.8736828912603798  0.3694394898641136  0.1241378577167822
  0.3736828912603727  0.8694394898641065  0.1241378577167822
  0.8736828912603798  0.8694394898641065  0.1241378577167822
  0.1250000000000000  0.3703940322082246  0.8750000000000000
  0.6250000000000000  0.3703940322082246  0.8750000000000000
  0.1250000000000000  0.8703940322082104  0.8750000000000000
  0.6250000000000000  0.8703940322082104  0.8750000000000000
  0.3750000000000000  0.1222463303652717  0.8750000000000000
  0.8750000000000000  0.1222463303652717  0.8750000000000000
  0.3750000000000000  0.6222463153652669  0.8750000000000000
  0.8750000000000000  0.6222463153652669  0.8750000000000000
  0.1236828832603791  0.1194394898641136  0.6241378577167751
  0.6236828912603798  0.1194394898641136  0.6241378577167751
  0.1236828832603791  0.6194394898641065  0.6241378577167751
  0.6236828912603798  0.6194394898641065  0.6241378577167751
  0.3763171087396273  0.3694394898641136  0.6258621422832249
  0.8763171087396202  0.3694394898641136  0.6258621422832249
  0.3763171087396273  0.8694394898641065  0.6258621422832249
  0.8763171087396202  0.8694394898641065  0.6258621422832249
  0.3750000000000000  0.1203940242082240  0.3750000000000000
  0.8750000000000000  0.1203940242082240  0.3750000000000000
  0.3750000000000000  0.6203940322082104  0.3750000000000000
  0.8750000000000000  0.6203940322082104  0.3750000000000000
  0.1250000000000000  0.3722463153652740  0.3750000000000000
  0.6250000000000000  0.3722463153652740  0.3750000000000000
  0.1250000000000000  0.8722463153652669  0.3750000000000000
  0.6250000000000000  0.8722463153652669  0.3750000000000000
  0.9981222197700177  0.0047068551827749  0.5000123894510864
  0.4981222197700248  0.0047068551827749  0.5000123894510864
  0.9981222197700177  0.5047068551827749  0.5000123894510864
  0.4981222197700248  0.5047068551827749  0.5000123894510864
  0.2518777802299752  0.0047068551827749  0.2499876105489136
  0.7518777802299823  0.0047068551827749  0.2499876105489136
  0.2518777802299752  0.5047068551827749  0.2499876105489136
  0.7518777802299823  0.5047068551827749  0.2499876105489136
  0.2481222197700177  0.2547068551827678  0.0000123894510864
  0.7481222197700177  0.2547068551827678  0.0000123894510864
  0.2481222197700177  0.7547068551827749  0.0000123894510864
  0.7481222197700177  0.7547068551827749  0.0000123894510864
  0.0018777802299823  0.2547068551827678  0.7499876105489136
  0.5018777802299823  0.2547068551827678  0.7499876105489136
  0.0018777802299823  0.7547068551827749  0.7499876105489136
  0.5018777802299823  0.7547068551827749  0.7499876105489136
  0.9989776214068513  0.0045334811663835  0.0004391871078795
  0.4989776214068513  0.0045334811663835  0.0004391871078795
  0.9989776214068513  0.5045334811663835  0.0004391871078795
  0.4989776214068513  0.5045334811663835  0.0004391871078795
  0.2510223785931487  0.0045334811663835  0.7495608128921205
  0.7510223785931416  0.0045334811663835  0.7495608128921205
  0.2510223785931487  0.5045334811663835  0.7495608128921205
  0.7510223785931416  0.5045334811663835  0.7495608128921205
  0.2489776214068513  0.2545334811663693  0.5004391871078795
  0.7489776214068584  0.2545334811663693  0.5004391871078795
  0.2489776214068513  0.7545334811663835  0.5004391871078795
  0.7489776214068584  0.7545334811663835  0.5004391871078795
  0.0010223785931487  0.2545334811663693  0.2495608128921205
  0.5010223785931416  0.2545334811663693  0.2495608128921205
  0.0010223785931487  0.7545334811663835  0.2495608128921205
  0.5010223785931416  0.7545334811663835  0.2495608128921205
 
  0.00000000E+00  0.00000000E+00  0.00000000E+00
  0.00000000E+00  0.00000000E+00  0.00000000E+00
  0.00000000E+00  0.00000000E+00  0.00000000E+00
  0.00000000E+00  0.00000000E+00  0.00000000E+00
  0.00000000E+00  0.00000000E+00  0.00000000E+00
  0.00000000E+00  0.00000000E+00  0.00000000E+00
  0.00000000E+00  0.00000000E+00  0.00000000E+00
  0.00000000E+00  0.00000000E+00  0.00000000E+00
  0.00000000E+00  0.00000000E+00  0.00000000E+00
  0.00000000E+00  0.00000000E+00  0.00000000E+00
  0.00000000E+00  0.00000000E+00  0.00000000E+00
  0.00000000E+00  0.00000000E+00  0.00000000E+00
  0.00000000E+00  0.00000000E+00  0.00000000E+00
  0.00000000E+00  0.00000000E+00  0.00000000E+00
  0.00000000E+00  0.00000000E+00  0.00000000E+00
  0.00000000E+00  0.00000000E+00  0.00000000E+00
  0.00000000E+00  0.00000000E+00  0.00000000E+00
  0.00000000E+00  0.00000000E+00  0.00000000E+00
  0.00000000E+00  0.00000000E+00  0.00000000E+00
  0.00000000E+00  0.00000000E+00  0.00000000E+00
  0.00000000E+00  0.00000000E+00  0.00000000E+00
  0.00000000E+00  0.00000000E+00  0.00000000E+00
  0.00000000E+00  0.00000000E+00  0.00000000E+00
  0.00000000E+00  0.00000000E+00  0.00000000E+00
  0.00000000E+00  0.00000000E+00  0.00000000E+00
  0.00000000E+00  0.00000000E+00  0.00000000E+00
  0.00000000E+00  0.00000000E+00  0.00000000E+00
  0.00000000E+00  0.00000000E+00  0.00000000E+00
  0.00000000E+00  0.00000000E+00  0.00000000E+00
  0.00000000E+00  0.00000000E+00  0.00000000E+00
  0.00000000E+00  0.00000000E+00  0.00000000E+00
  0.00000000E+00  0.00000000E+00  0.00000000E+00
  0.00000000E+00  0.00000000E+00  0.00000000E+00
  0.00000000E+00  0.00000000E+00  0.00000000E+00
  0.00000000E+00  0.00000000E+00  0.00000000E+00
  0.00000000E+00  0.00000000E+00  0.00000000E+00
  0.00000000E+00  0.00000000E+00  0.00000000E+00
  0.00000000E+00  0.00000000E+00  0.00000000E+00
  0.00000000E+00  0.00000000E+00  0.00000000E+00
  0.00000000E+00  0.00000000E+00  0.00000000E+00
  0.00000000E+00  0.00000000E+00  0.00000000E+00
  0.00000000E+00  0.00000000E+00  0.00000000E+00
  0.00000000E+00  0.00000000E+00  0.00000000E+00
  0.00000000E+00  0.00000000E+00  0.00000000E+00
  0.00000000E+00  0.00000000E+00  0.00000000E+00
  0.00000000E+00  0.00000000E+00  0.00000000E+00
  0.00000000E+00  0.00000000E+00  0.00000000E+00
  0.00000000E+00  0.00000000E+00  0.00000000E+00
  0.00000000E+00  0.00000000E+00  0.00000000E+00
  0.00000000E+00  0.00000000E+00  0.00000000E+00
  0.00000000E+00  0.00000000E+00  0.00000000E+00
  0.00000000E+00  0.00000000E+00  0.00000000E+00
  0.00000000E+00  0.00000000E+00  0.00000000E+00
  0.00000000E+00  0.00000000E+00  0.00000000E+00
  0.00000000E+00  0.00000000E+00  0.00000000E+00
  0.00000000E+00  0.00000000E+00  0.00000000E+00
  0.00000000E+00  0.00000000E+00  0.00000000E+00
  0.00000000E+00  0.00000000E+00  0.00000000E+00
  0.00000000E+00  0.00000000E+00  0.00000000E+00
  0.00000000E+00  0.00000000E+00  0.00000000E+00
  0.00000000E+00  0.00000000E+00  0.00000000E+00
  0.00000000E+00  0.00000000E+00  0.00000000E+00
  0.00000000E+00  0.00000000E+00  0.00000000E+00
  0.00000000E+00  0.00000000E+00  0.00000000E+00
