SYSTEM = CuFeS2
ISTART = 1
ICHARG = 1

# electronic optimization
ENCUT = 700

#ionic relaxation
EDIFF = 1E-8
EDIFFG = -1E-5
IBRION = -1
#POTIM = 0.1
#ISIF = 3
NSW = 0
SIGMA = 0.03
ISMEAR = -5
#ISYM = 1
NELM = 500

NCORE = 32
#KPAR = 6
LWAVE = .TRUE.
LCHARG = .TRUE.
GGA = PS
LDAU = .TRUE.
LDAUTYPE = 2 # Dudarev et al.
LDAUU = 0 0.1 4.7
LMAXMIX = 4
LSORBIT = .TRUE.
#LPEAD = .TRUE.
#LEPSILON = .TRUE.
#LCALCPOL = .TRUE.
PREC = Accurate
LORBIT = 11

# collinear magnetism
LNONCOLLINEAR = .TRUE.
MAGMOM = 0 0 0   0 0 0   0 0 0   0 0 0   0 0 0   0 0 0   0 0 0   0 0 0   0 0 0   0 0 0   0 0 0   0 0 0   0 0 0   0 0 0   0 0 0   0 0 0   0 0 0   0 0 0   0 0 0   0 0 0   0 0 0   0 0 0   0 0 0   0 0 0   0 0 0   0 0 0   0 0 0   0 0 0   0 0 0   0 0 0   0 0 0   0 0 0   0 0 0   0 0 0   0 0 0   0 0 0   0 0 0   0 0 0   0 0 0   0 0 0   0 0 0   0 0 0   0 0 0   0 0 0   0 0 0   0 0 0   0 0 0   0 0 0   0 0 4   0 0 4   0 0 4   0 0 4   0 0 -4   0 0 -4   0 0 -4   0 0 -4   0 0 4   0 0 4   0 0 4   0 0 4   0 0 -4   0 0 -4   0 0 -4   0 0 -4
