Fe16 Cu16 S32
1.0
10.508732 0.164974 0.000000
0.164974 10.508732 0.000000
0.000000 0.000000 10.418267
S Cu Fe
32 16 16
direct
0.126124 0.125176 0.123303 S
0.626124 0.125176 0.123303 S
0.126124 0.625176 0.123303 S
0.626124 0.625176 0.123303 S
0.373876 0.374824 0.123303 S
0.873876 0.374824 0.123303 S
0.373876 0.874824 0.123303 S
0.873876 0.874824 0.123303 S
0.124824 0.373876 0.873303 S
0.624824 0.373876 0.873303 S
0.124824 0.873876 0.873303 S
0.624824 0.873876 0.873303 S
0.375176 0.126124 0.873303 S
0.875176 0.126124 0.873303 S
0.375176 0.626124 0.873303 S
0.875176 0.626124 0.873303 S
0.123876 0.124824 0.623303 S
0.623876 0.124824 0.623303 S
0.123876 0.624824 0.623303 S
0.623876 0.624824 0.623303 S
0.376124 0.375176 0.623303 S
0.876124 0.375176 0.623303 S
0.376124 0.875176 0.623303 S
0.876124 0.875176 0.623303 S
0.374824 0.123876 0.373303 S
0.874824 0.123876 0.373303 S
0.374824 0.623876 0.373303 S
0.874824 0.623876 0.373303 S
0.125176 0.376124 0.373303 S
0.625176 0.376124 0.373303 S
0.125176 0.876124 0.373303 S
0.625176 0.876124 0.373303 S
0.000000 0.000000 0.501467 Cu
0.500000 0.000000 0.501467 Cu
0.000000 0.500000 0.501467 Cu
0.500000 0.500000 0.501467 Cu
0.250000 0.000000 0.251467 Cu
0.750000 0.000000 0.251467 Cu
0.250000 0.500000 0.251467 Cu
0.750000 0.500000 0.251467 Cu
0.250000 0.250000 0.001467 Cu
0.750000 0.250000 0.001467 Cu
0.250000 0.750000 0.001467 Cu
0.750000 0.750000 0.001467 Cu
0.000000 0.250000 0.751467 Cu
0.500000 0.250000 0.751467 Cu
0.000000 0.750000 0.751467 Cu
0.500000 0.750000 0.751467 Cu
0.000000 0.000000 0.001927 Fe
0.500000 0.000000 0.001927 Fe
0.000000 0.500000 0.001927 Fe
0.500000 0.500000 0.001927 Fe
0.250000 0.000000 0.751927 Fe
0.750000 0.000000 0.751927 Fe
0.250000 0.500000 0.751927 Fe
0.750000 0.500000 0.751927 Fe
0.250000 0.250000 0.501927 Fe
0.750000 0.250000 0.501927 Fe
0.250000 0.750000 0.501927 Fe
0.750000 0.750000 0.501927 Fe
0.000000 0.250000 0.251927 Fe
0.500000 0.250000 0.251927 Fe
0.000000 0.750000 0.251927 Fe
0.500000 0.750000 0.251927 Fe
