Fe16 Cu16 S32
1.0
10.511610 0.000000 0.165108
0.000000 10.518934 0.000000
0.163459 0.000000 10.406572
S Cu Fe
32 16 16
direct
0.126232 0.122992 0.125302 S
0.626232 0.122992 0.125302 S
0.126232 0.622992 0.125302 S
0.626232 0.622992 0.125302 S
0.373768 0.372992 0.124698 S
0.873768 0.372992 0.124698 S
0.373768 0.872992 0.124698 S
0.873768 0.872992 0.124698 S
0.125000 0.372644 0.875000 S
0.625000 0.372644 0.875000 S
0.125000 0.872644 0.875000 S
0.625000 0.872644 0.875000 S
0.375000 0.124753 0.875000 S
0.875000 0.124753 0.875000 S
0.375000 0.624753 0.875000 S
0.875000 0.624753 0.875000 S
0.123768 0.122992 0.624698 S
0.623768 0.122992 0.624698 S
0.123768 0.622992 0.624698 S
0.623768 0.622992 0.624698 S
0.376232 0.372992 0.625302 S
0.876232 0.372992 0.625302 S
0.376232 0.872992 0.625302 S
0.876232 0.872992 0.625302 S
0.375000 0.122644 0.375000 S
0.875000 0.122644 0.375000 S
0.375000 0.622644 0.375000 S
0.875000 0.622644 0.375000 S
0.125000 0.374753 0.375000 S
0.625000 0.374753 0.375000 S
0.125000 0.874753 0.375000 S
0.625000 0.874753 0.375000 S
-0.000700 0.001684 0.499998 Cu
0.499300 0.001684 0.499998 Cu
-0.000700 0.501684 0.499998 Cu
0.499300 0.501684 0.499998 Cu
0.250700 0.001684 0.250002 Cu
0.750700 0.001684 0.250002 Cu
0.250700 0.501684 0.250002 Cu
0.750700 0.501684 0.250002 Cu
0.249300 0.251684 -0.000002 Cu
0.749300 0.251684 -0.000002 Cu
0.249300 0.751684 -0.000002 Cu
0.749300 0.751684 -0.000002 Cu
0.000700 0.251684 0.750002 Cu
0.500700 0.251684 0.750002 Cu
0.000700 0.751684 0.750002 Cu
0.500700 0.751684 0.750002 Cu
-0.000396 0.001626 0.000200 Fe
0.499604 0.001626 0.000200 Fe
-0.000396 0.501626 0.000200 Fe
0.499604 0.501626 0.000200 Fe
0.250396 0.001626 0.749800 Fe
0.750396 0.001626 0.749800 Fe
0.250396 0.501626 0.749800 Fe
0.750396 0.501626 0.749800 Fe
0.249604 0.251626 0.500200 Fe
0.749604 0.251626 0.500200 Fe
0.249604 0.751626 0.500200 Fe
0.749604 0.751626 0.500200 Fe
0.000396 0.251626 0.249800 Fe
0.500396 0.251626 0.249800 Fe
0.000396 0.751626 0.249800 Fe
0.500396 0.751626 0.249800 Fe
