Fe16 Cu16 S32                           
   1.00000000000000     
    10.4959270000000000    0.4582620000000000    0.0000000000000000
     0.4582620000000000   10.4959270000000000    0.0000000000000000
     0.0000000000000000    0.0000000000000000   10.4344300000000008
   S    Cu   Fe
    32    16    16
Direct
  0.1261030000000005  0.1255069999999989  0.1201650000000001
  0.6261030000000005  0.1255069999999989  0.1201650000000001
  0.1261030000000005  0.6255069999999989  0.1201650000000001
  0.6261030000000005  0.6255069999999989  0.1201650000000001
  0.3738969999999995  0.3744930000000011  0.1201650000000001
  0.8738969999999995  0.3744930000000011  0.1201650000000001
  0.3738969999999995  0.8744930000000011  0.1201650000000001
  0.8738969999999995  0.8744930000000011  0.1201650000000001
  0.1244930000000011  0.3738969999999995  0.8701650000000001
  0.6244930000000011  0.3738969999999995  0.8701650000000001
  0.1244930000000011  0.8738969999999995  0.8701650000000001
  0.6244930000000011  0.8738969999999995  0.8701650000000001
  0.3755069999999989  0.1261030000000005  0.8701650000000001
  0.8755069999999989  0.1261030000000005  0.8701650000000001
  0.3755069999999989  0.6261030000000005  0.8701650000000001
  0.8755069999999989  0.6261030000000005  0.8701650000000001
  0.1238969999999995  0.1244930000000011  0.6201650000000001
  0.6238969999999995  0.1244930000000011  0.6201650000000001
  0.1238969999999995  0.6244930000000011  0.6201650000000001
  0.6238969999999995  0.6244930000000011  0.6201650000000001
  0.3761030000000005  0.3755069999999989  0.6201650000000001
  0.8761030000000005  0.3755069999999989  0.6201650000000001
  0.3761030000000005  0.8755069999999989  0.6201650000000001
  0.8761030000000005  0.8755069999999989  0.6201650000000001
  0.3744930000000011  0.1238969999999995  0.3701650000000001
  0.8744930000000011  0.1238969999999995  0.3701650000000001
  0.3744930000000011  0.6238969999999995  0.3701650000000001
  0.8744930000000011  0.6238969999999995  0.3701650000000001
  0.1255069999999989  0.3761030000000005  0.3701650000000001
  0.6255069999999989  0.3761030000000005  0.3701650000000001
  0.1255069999999989  0.8761030000000005  0.3701650000000001
  0.6255069999999989  0.8761030000000005  0.3701650000000001
  0.0000000000000000  0.0000000000000000  0.5041939999999983
  0.5000000000000000  0.0000000000000000  0.5041939999999983
  0.0000000000000000  0.5000000000000000  0.5041939999999983
  0.5000000000000000  0.5000000000000000  0.5041939999999983
  0.2500000000000000  0.0000000000000000  0.2541939999999983
  0.7500000000000000  0.0000000000000000  0.2541939999999983
  0.2500000000000000  0.5000000000000000  0.2541939999999983
  0.7500000000000000  0.5000000000000000  0.2541939999999983
  0.2500000000000000  0.2500000000000000  0.0041939999999983
  0.7500000000000000  0.2500000000000000  0.0041939999999983
  0.2500000000000000  0.7500000000000000  0.0041939999999983
  0.7500000000000000  0.7500000000000000  0.0041939999999983
  0.0000000000000000  0.2500000000000000  0.7541939999999983
  0.5000000000000000  0.2500000000000000  0.7541939999999983
  0.0000000000000000  0.7500000000000000  0.7541939999999983
  0.5000000000000000  0.7500000000000000  0.7541939999999983
  0.0000000000000000  0.0000000000000000  0.0054749999999970
  0.5000000000000000  0.0000000000000000  0.0054749999999970
  0.0000000000000000  0.5000000000000000  0.0054749999999970
  0.5000000000000000  0.5000000000000000  0.0054749999999970
  0.2500000000000000  0.0000000000000000  0.7554749999999970
  0.7500000000000000  0.0000000000000000  0.7554749999999970
  0.2500000000000000  0.5000000000000000  0.7554749999999970
  0.7500000000000000  0.5000000000000000  0.7554749999999970
  0.2500000000000000  0.2500000000000000  0.5054749999999970
  0.7500000000000000  0.2500000000000000  0.5054749999999970
  0.2500000000000000  0.7500000000000000  0.5054749999999970
  0.7500000000000000  0.7500000000000000  0.5054749999999970
  0.0000000000000000  0.2500000000000000  0.2554749999999970
  0.5000000000000000  0.2500000000000000  0.2554749999999970
  0.0000000000000000  0.7500000000000000  0.2554749999999970
  0.5000000000000000  0.7500000000000000  0.2554749999999970
 
  0.00000000E+00  0.00000000E+00  0.00000000E+00
  0.00000000E+00  0.00000000E+00  0.00000000E+00
  0.00000000E+00  0.00000000E+00  0.00000000E+00
  0.00000000E+00  0.00000000E+00  0.00000000E+00
  0.00000000E+00  0.00000000E+00  0.00000000E+00
  0.00000000E+00  0.00000000E+00  0.00000000E+00
  0.00000000E+00  0.00000000E+00  0.00000000E+00
  0.00000000E+00  0.00000000E+00  0.00000000E+00
  0.00000000E+00  0.00000000E+00  0.00000000E+00
  0.00000000E+00  0.00000000E+00  0.00000000E+00
  0.00000000E+00  0.00000000E+00  0.00000000E+00
  0.00000000E+00  0.00000000E+00  0.00000000E+00
  0.00000000E+00  0.00000000E+00  0.00000000E+00
  0.00000000E+00  0.00000000E+00  0.00000000E+00
  0.00000000E+00  0.00000000E+00  0.00000000E+00
  0.00000000E+00  0.00000000E+00  0.00000000E+00
  0.00000000E+00  0.00000000E+00  0.00000000E+00
  0.00000000E+00  0.00000000E+00  0.00000000E+00
  0.00000000E+00  0.00000000E+00  0.00000000E+00
  0.00000000E+00  0.00000000E+00  0.00000000E+00
  0.00000000E+00  0.00000000E+00  0.00000000E+00
  0.00000000E+00  0.00000000E+00  0.00000000E+00
  0.00000000E+00  0.00000000E+00  0.00000000E+00
  0.00000000E+00  0.00000000E+00  0.00000000E+00
  0.00000000E+00  0.00000000E+00  0.00000000E+00
  0.00000000E+00  0.00000000E+00  0.00000000E+00
  0.00000000E+00  0.00000000E+00  0.00000000E+00
  0.00000000E+00  0.00000000E+00  0.00000000E+00
  0.00000000E+00  0.00000000E+00  0.00000000E+00
  0.00000000E+00  0.00000000E+00  0.00000000E+00
  0.00000000E+00  0.00000000E+00  0.00000000E+00
  0.00000000E+00  0.00000000E+00  0.00000000E+00
  0.00000000E+00  0.00000000E+00  0.00000000E+00
  0.00000000E+00  0.00000000E+00  0.00000000E+00
  0.00000000E+00  0.00000000E+00  0.00000000E+00
  0.00000000E+00  0.00000000E+00  0.00000000E+00
  0.00000000E+00  0.00000000E+00  0.00000000E+00
  0.00000000E+00  0.00000000E+00  0.00000000E+00
  0.00000000E+00  0.00000000E+00  0.00000000E+00
  0.00000000E+00  0.00000000E+00  0.00000000E+00
  0.00000000E+00  0.00000000E+00  0.00000000E+00
  0.00000000E+00  0.00000000E+00  0.00000000E+00
  0.00000000E+00  0.00000000E+00  0.00000000E+00
  0.00000000E+00  0.00000000E+00  0.00000000E+00
  0.00000000E+00  0.00000000E+00  0.00000000E+00
  0.00000000E+00  0.00000000E+00  0.00000000E+00
  0.00000000E+00  0.00000000E+00  0.00000000E+00
  0.00000000E+00  0.00000000E+00  0.00000000E+00
  0.00000000E+00  0.00000000E+00  0.00000000E+00
  0.00000000E+00  0.00000000E+00  0.00000000E+00
  0.00000000E+00  0.00000000E+00  0.00000000E+00
  0.00000000E+00  0.00000000E+00  0.00000000E+00
  0.00000000E+00  0.00000000E+00  0.00000000E+00
  0.00000000E+00  0.00000000E+00  0.00000000E+00
  0.00000000E+00  0.00000000E+00  0.00000000E+00
  0.00000000E+00  0.00000000E+00  0.00000000E+00
  0.00000000E+00  0.00000000E+00  0.00000000E+00
  0.00000000E+00  0.00000000E+00  0.00000000E+00
  0.00000000E+00  0.00000000E+00  0.00000000E+00
  0.00000000E+00  0.00000000E+00  0.00000000E+00
  0.00000000E+00  0.00000000E+00  0.00000000E+00
  0.00000000E+00  0.00000000E+00  0.00000000E+00
  0.00000000E+00  0.00000000E+00  0.00000000E+00
  0.00000000E+00  0.00000000E+00  0.00000000E+00
