generated by phonopy                    
   1.00000000000000     
    10.5159301757999994    0.0000000000000000    0.0000000000000000
     0.0000000000000000   10.5359300702069323    0.0000000000000000
     1.4489102185000000    0.0000000000000000   10.3095318988999995
   S    Cu   Fe
    32    16    16
Direct
  0.1266228806053749  0.1159411795378342  0.1263187554167013
  0.6266228656053703  0.1159411795378342  0.1263187554167013
  0.1266228806053749  0.6159411795378423  0.1263187554167013
  0.6266228656053703  0.6159411795378423  0.1263187554167013
  0.3733771343946230  0.3659411795378413  0.1236812445832988
  0.8733771343946297  0.3659411795378413  0.1236812445832988
  0.3733771343946230  0.8659411795378423  0.1236812445832988
  0.8733771343946297  0.8659411795378423  0.1236812445832988
  0.1250000000000000  0.3689596001772337  0.8750000000000000
  0.6250000000000000  0.3689596001772337  0.8750000000000000
  0.1250000000000000  0.8689596001772556  0.8750000000000000
  0.6250000000000000  0.8689596001772556  0.8750000000000000
  0.3750000000000000  0.1200677432289937  0.8750000000000000
  0.8750000000000000  0.1200677432289937  0.8750000000000000
  0.3750000000000000  0.6200677282289958  0.8750000000000000
  0.8750000000000000  0.6200677282289958  0.8750000000000000
  0.1233771263946295  0.1159411795378342  0.6236812445832974
  0.6233771343946297  0.1159411795378342  0.6236812445832974
  0.1233771263946295  0.6159411795378423  0.6236812445832974
  0.6233771343946297  0.6159411795378423  0.6236812445832974
  0.3766228656053770  0.3659411795378413  0.6263187554167026
  0.8766228656053703  0.3659411795378413  0.6263187554167026
  0.3766228656053770  0.8659411795378423  0.6263187554167026
  0.8766228656053703  0.8659411795378423  0.6263187554167026
  0.3750000000000000  0.1189595921772475  0.3750000000000000
  0.8750000000000000  0.1189595921772475  0.3750000000000000
  0.3750000000000000  0.6189596001772556  0.3750000000000000
  0.8750000000000000  0.6189596001772556  0.3750000000000000
  0.1250000000000000  0.3700677282289961  0.3750000000000000
  0.6250000000000000  0.3700677282289961  0.3750000000000000
  0.1250000000000000  0.8700677282289958  0.3750000000000000
  0.6250000000000000  0.8700677282289958  0.3750000000000000
  0.9965087255540515  0.0073486768488556  0.5000319999057221
  0.4965087255540510  0.0073486768488556  0.5000319999057221
  0.9965087255540515  0.5073486768488628  0.5000319999057221
  0.4965087255540510  0.5073486768488628  0.5000319999057221
  0.2534912744459490  0.0073486768488556  0.2499680000942776
  0.7534912744459556  0.0073486768488556  0.2499680000942776
  0.2534912744459490  0.5073486768488628  0.2499680000942776
  0.7534912744459556  0.5073486768488628  0.2499680000942776
  0.2465087255540509  0.2573486768488555  0.0000319999057222
  0.7465087255540444  0.2573486768488555  0.0000319999057222
  0.2465087255540509  0.7573486768488628  0.0000319999057222
  0.7465087255540444  0.7573486768488628  0.0000319999057222
  0.0034912744459489  0.2573486768488555  0.7499680000942779
  0.5034912744459556  0.2573486768488555  0.7499680000942779
  0.0034912744459489  0.7573486768488628  0.7499680000942779
  0.5034912744459556  0.7573486768488628  0.7499680000942779
  0.9979067791089256  0.0071964794101916  0.0012905646481921
  0.4979067791089333  0.0071964794101916  0.0012905646481921
  0.9979067791089256  0.5071964794101927  0.0012905646481921
  0.4979067791089333  0.5071964794101927  0.0012905646481921
  0.2520932208910667  0.0071964794101916  0.7487094353518153
  0.7520932208910673  0.0071964794101916  0.7487094353518153
  0.2520932208910667  0.5071964794101927  0.7487094353518153
  0.7520932208910673  0.5071964794101927  0.7487094353518153
  0.2479067791089262  0.2571964794101913  0.5012905646481847
  0.7479067791089327  0.2571964794101913  0.5012905646481847
  0.2479067791089262  0.7571964794101927  0.5012905646481847
  0.7479067791089327  0.7571964794101927  0.5012905646481847
  0.0020932208910738  0.2571964794101913  0.2487094353518081
  0.5020932208910673  0.2571964794101913  0.2487094353518081
  0.0020932208910738  0.7571964794101927  0.2487094353518081
  0.5020932208910673  0.7571964794101927  0.2487094353518081
 
  0.00000000E+00  0.00000000E+00  0.00000000E+00
  0.00000000E+00  0.00000000E+00  0.00000000E+00
  0.00000000E+00  0.00000000E+00  0.00000000E+00
  0.00000000E+00  0.00000000E+00  0.00000000E+00
  0.00000000E+00  0.00000000E+00  0.00000000E+00
  0.00000000E+00  0.00000000E+00  0.00000000E+00
  0.00000000E+00  0.00000000E+00  0.00000000E+00
  0.00000000E+00  0.00000000E+00  0.00000000E+00
  0.00000000E+00  0.00000000E+00  0.00000000E+00
  0.00000000E+00  0.00000000E+00  0.00000000E+00
  0.00000000E+00  0.00000000E+00  0.00000000E+00
  0.00000000E+00  0.00000000E+00  0.00000000E+00
  0.00000000E+00  0.00000000E+00  0.00000000E+00
  0.00000000E+00  0.00000000E+00  0.00000000E+00
  0.00000000E+00  0.00000000E+00  0.00000000E+00
  0.00000000E+00  0.00000000E+00  0.00000000E+00
  0.00000000E+00  0.00000000E+00  0.00000000E+00
  0.00000000E+00  0.00000000E+00  0.00000000E+00
  0.00000000E+00  0.00000000E+00  0.00000000E+00
  0.00000000E+00  0.00000000E+00  0.00000000E+00
  0.00000000E+00  0.00000000E+00  0.00000000E+00
  0.00000000E+00  0.00000000E+00  0.00000000E+00
  0.00000000E+00  0.00000000E+00  0.00000000E+00
  0.00000000E+00  0.00000000E+00  0.00000000E+00
  0.00000000E+00  0.00000000E+00  0.00000000E+00
  0.00000000E+00  0.00000000E+00  0.00000000E+00
  0.00000000E+00  0.00000000E+00  0.00000000E+00
  0.00000000E+00  0.00000000E+00  0.00000000E+00
  0.00000000E+00  0.00000000E+00  0.00000000E+00
  0.00000000E+00  0.00000000E+00  0.00000000E+00
  0.00000000E+00  0.00000000E+00  0.00000000E+00
  0.00000000E+00  0.00000000E+00  0.00000000E+00
  0.00000000E+00  0.00000000E+00  0.00000000E+00
  0.00000000E+00  0.00000000E+00  0.00000000E+00
  0.00000000E+00  0.00000000E+00  0.00000000E+00
  0.00000000E+00  0.00000000E+00  0.00000000E+00
  0.00000000E+00  0.00000000E+00  0.00000000E+00
  0.00000000E+00  0.00000000E+00  0.00000000E+00
  0.00000000E+00  0.00000000E+00  0.00000000E+00
  0.00000000E+00  0.00000000E+00  0.00000000E+00
  0.00000000E+00  0.00000000E+00  0.00000000E+00
  0.00000000E+00  0.00000000E+00  0.00000000E+00
  0.00000000E+00  0.00000000E+00  0.00000000E+00
  0.00000000E+00  0.00000000E+00  0.00000000E+00
  0.00000000E+00  0.00000000E+00  0.00000000E+00
  0.00000000E+00  0.00000000E+00  0.00000000E+00
  0.00000000E+00  0.00000000E+00  0.00000000E+00
  0.00000000E+00  0.00000000E+00  0.00000000E+00
  0.00000000E+00  0.00000000E+00  0.00000000E+00
  0.00000000E+00  0.00000000E+00  0.00000000E+00
  0.00000000E+00  0.00000000E+00  0.00000000E+00
  0.00000000E+00  0.00000000E+00  0.00000000E+00
  0.00000000E+00  0.00000000E+00  0.00000000E+00
  0.00000000E+00  0.00000000E+00  0.00000000E+00
  0.00000000E+00  0.00000000E+00  0.00000000E+00
  0.00000000E+00  0.00000000E+00  0.00000000E+00
  0.00000000E+00  0.00000000E+00  0.00000000E+00
  0.00000000E+00  0.00000000E+00  0.00000000E+00
  0.00000000E+00  0.00000000E+00  0.00000000E+00
  0.00000000E+00  0.00000000E+00  0.00000000E+00
  0.00000000E+00  0.00000000E+00  0.00000000E+00
  0.00000000E+00  0.00000000E+00  0.00000000E+00
  0.00000000E+00  0.00000000E+00  0.00000000E+00
  0.00000000E+00  0.00000000E+00  0.00000000E+00
