Fe16 Cu16 S32
1.0
10.507928 0.000000 0.366959
0.000000 10.521241 0.000000
0.363292 0.000000 10.402927
S Cu Fe
32 16 16
direct
0.126285 0.120552 0.125690 S
0.626285 0.120552 0.125690 S
0.126285 0.620552 0.125690 S
0.626285 0.620552 0.125690 S
0.373715 0.370552 0.124310 S
0.873715 0.370552 0.124310 S
0.373715 0.870552 0.124310 S
0.873715 0.870552 0.124310 S
0.125000 0.371084 0.875000 S
0.625000 0.371084 0.875000 S
0.125000 0.871084 0.875000 S
0.625000 0.871084 0.875000 S
0.375000 0.123029 0.875000 S
0.875000 0.123029 0.875000 S
0.375000 0.623028 0.875000 S
0.875000 0.623028 0.875000 S
0.123715 0.120552 0.624310 S
0.623715 0.120552 0.624310 S
0.123715 0.620552 0.624310 S
0.623715 0.620552 0.624310 S
0.376285 0.370552 0.625690 S
0.876285 0.370552 0.625690 S
0.376285 0.870552 0.625690 S
0.876285 0.870552 0.625690 S
0.375000 0.121084 0.375000 S
0.875000 0.121084 0.375000 S
0.375000 0.621084 0.375000 S
0.875000 0.621084 0.375000 S
0.125000 0.373028 0.375000 S
0.625000 0.373028 0.375000 S
0.125000 0.873028 0.375000 S
0.625000 0.873028 0.375000 S
-0.001502 0.003765 0.500010 Cu
0.498498 0.003765 0.500010 Cu
-0.001502 0.503765 0.500010 Cu
0.498498 0.503765 0.500010 Cu
0.251502 0.003765 0.249990 Cu
0.751502 0.003765 0.249990 Cu
0.251502 0.503765 0.249990 Cu
0.751502 0.503765 0.249990 Cu
0.248498 0.253765 0.000010 Cu
0.748498 0.253765 0.000010 Cu
0.248498 0.753765 0.000010 Cu
0.748498 0.753765 0.000010 Cu
0.001502 0.253765 0.749990 Cu
0.501502 0.253765 0.749990 Cu
0.001502 0.753765 0.749990 Cu
0.501502 0.753765 0.749990 Cu
-0.000818 0.003627 0.000351 Fe
0.499182 0.003627 0.000351 Fe
-0.000818 0.503627 0.000351 Fe
0.499182 0.503627 0.000351 Fe
0.250818 0.003627 0.749649 Fe
0.750818 0.003627 0.749649 Fe
0.250818 0.503627 0.749649 Fe
0.750818 0.503627 0.749649 Fe
0.249182 0.253627 0.500351 Fe
0.749182 0.253627 0.500351 Fe
0.249182 0.753627 0.500351 Fe
0.749182 0.753627 0.500351 Fe
0.000818 0.253627 0.249649 Fe
0.500818 0.253627 0.249649 Fe
0.000818 0.753627 0.249649 Fe
0.500818 0.753627 0.249649 Fe
