Fe16 Cu16 S32
1.0
10.508087 0.000000 0.256793
0.000000 10.521727 0.000000
0.254227 0.000000 10.403085
S Cu Fe
32 16 16
direct
0.126294 0.121865 0.125464 S
0.626294 0.121865 0.125464 S
0.126294 0.621865 0.125464 S
0.626294 0.621865 0.125464 S
0.373706 0.371865 0.124536 S
0.873706 0.371865 0.124536 S
0.373706 0.871865 0.124536 S
0.873706 0.871865 0.124536 S
0.125000 0.372044 0.875000 S
0.625000 0.372044 0.875000 S
0.125000 0.872044 0.875000 S
0.625000 0.872044 0.875000 S
0.375000 0.123989 0.875000 S
0.875000 0.123989 0.875000 S
0.375000 0.623989 0.875000 S
0.875000 0.623989 0.875000 S
0.123706 0.121865 0.624536 S
0.623706 0.121865 0.624536 S
0.123706 0.621865 0.624536 S
0.623706 0.621865 0.624536 S
0.376294 0.371865 0.625464 S
0.876294 0.371865 0.625464 S
0.376294 0.871865 0.625464 S
0.876294 0.871865 0.625464 S
0.375000 0.122044 0.375000 S
0.875000 0.122044 0.375000 S
0.375000 0.622044 0.375000 S
0.875000 0.622044 0.375000 S
0.125000 0.373989 0.375000 S
0.625000 0.373989 0.375000 S
0.125000 0.873989 0.375000 S
0.625000 0.873989 0.375000 S
-0.001136 0.002595 0.500005 Cu
0.498864 0.002595 0.500005 Cu
-0.001136 0.502595 0.500005 Cu
0.498864 0.502595 0.500005 Cu
0.251136 0.002595 0.249995 Cu
0.751136 0.002595 0.249995 Cu
0.251136 0.502595 0.249995 Cu
0.751136 0.502595 0.249995 Cu
0.248864 0.252595 0.000005 Cu
0.748864 0.252595 0.000005 Cu
0.248864 0.752595 0.000005 Cu
0.748864 0.752595 0.000005 Cu
0.001136 0.252595 0.749995 Cu
0.501136 0.252595 0.749995 Cu
0.001136 0.752595 0.749995 Cu
0.501136 0.752595 0.749995 Cu
-0.000660 0.002523 0.000374 Fe
0.499340 0.002523 0.000374 Fe
-0.000660 0.502523 0.000374 Fe
0.499340 0.502523 0.000374 Fe
0.250660 0.002523 0.749626 Fe
0.750660 0.002523 0.749626 Fe
0.250660 0.502523 0.749626 Fe
0.750660 0.502523 0.749626 Fe
0.249340 0.252523 0.500374 Fe
0.749340 0.252523 0.500374 Fe
0.249340 0.752523 0.500374 Fe
0.749340 0.752523 0.500374 Fe
0.000660 0.252523 0.249626 Fe
0.500660 0.252523 0.249626 Fe
0.000660 0.752523 0.249626 Fe
0.500660 0.752523 0.249626 Fe
