generated by phonopy                    
   1.00000000000000     
    10.5159301757999994    0.0000000000000000    0.0000000000000000
     0.0000000000000000   10.5304139072478780    0.0000000000000000
     1.2687634015000000    0.0000000000000000   10.3332486772000003
   S    Cu   Fe
    32    16    16
Direct
  0.1264991747137501  0.1171622941077999  0.1261605878848826
  0.6264991597137453  0.1171622941077999  0.1261605878848826
  0.1264991747137501  0.6171622941077999  0.1261605878848826
  0.6264991597137453  0.6171622941077999  0.1261605878848826
  0.3735008402862476  0.3671622941077999  0.1238394121151174
  0.8735008402862547  0.3671622941077999  0.1238394121151174
  0.3735008402862476  0.8671622941077999  0.1238394121151174
  0.8735008402862547  0.8671622941077999  0.1238394121151174
  0.1250000000000000  0.3693466292110443  0.8750000000000000
  0.6250000000000000  0.3693466292110443  0.8750000000000000
  0.1250000000000000  0.8693466292110585  0.8750000000000000
  0.6250000000000000  0.8693466292110585  0.8750000000000000
  0.3750000000000000  0.1207355425356198  0.8750000000000000
  0.8750000000000000  0.1207355425356198  0.8750000000000000
  0.3750000000000000  0.6207355275356079  0.8750000000000000
  0.8750000000000000  0.6207355275356079  0.8750000000000000
  0.1235008322862541  0.1171622941077999  0.6238394121151245
  0.6235008402862547  0.1171622941077999  0.6238394121151245
  0.1235008322862541  0.6171622941077999  0.6238394121151245
  0.6235008402862547  0.6171622941077999  0.6238394121151245
  0.3764991597137524  0.3671622941077999  0.6261605878848755
  0.8764991597137453  0.3671622941077999  0.6261605878848755
  0.3764991597137524  0.8671622941077999  0.6261605878848755
  0.8764991597137453  0.8671622941077999  0.6261605878848755
  0.3750000000000000  0.1193466212110508  0.3750000000000000
  0.8750000000000000  0.1193466212110508  0.3750000000000000
  0.3750000000000000  0.6193466292110585  0.3750000000000000
  0.8750000000000000  0.6193466292110585  0.3750000000000000
  0.1250000000000000  0.3707355275356221  0.3750000000000000
  0.6250000000000000  0.3707355275356221  0.3750000000000000
  0.1250000000000000  0.8707355275356079  0.3750000000000000
  0.6250000000000000  0.8707355275356079  0.3750000000000000
  0.9971599777040367  0.0064880632806990  0.5000124194114832
  0.4971599777040510  0.0064880632806990  0.5000124194114832
  0.9971599777040367  0.5064880632806990  0.5000124194114832
  0.4971599777040510  0.5064880632806990  0.5000124194114832
  0.2528400222959490  0.0064880632806990  0.2499875805885168
  0.7528400222959633  0.0064880632806990  0.2499875805885168
  0.2528400222959490  0.5064880632806990  0.2499875805885168
  0.7528400222959633  0.5064880632806990  0.2499875805885168
  0.2471599777040367  0.2564880632806990  0.0000124194114761
  0.7471599777040367  0.2564880632806990  0.0000124194114761
  0.2471599777040367  0.7564880632806990  0.0000124194114761
  0.7471599777040367  0.7564880632806990  0.0000124194114761
  0.0028400222959561  0.2564880632806990  0.7499875805885239
  0.5028400222959633  0.2564880632806990  0.7499875805885239
  0.0028400222959561  0.7564880632806990  0.7499875805885239
  0.5028400222959633  0.7564880632806990  0.7499875805885239
  0.9983496392655127  0.0063085642381679  0.0009353180671781
  0.4983496392655127  0.0063085642381679  0.0009353180671781
  0.9983496392655127  0.5063085642381679  0.0009353180671781
  0.4983496392655127  0.5063085642381679  0.0009353180671781
  0.2516503607344873  0.0063085642381679  0.7490646819328219
  0.7516503607344873  0.0063085642381679  0.7490646819328219
  0.2516503607344873  0.5063085642381679  0.7490646819328219
  0.7516503607344873  0.5063085642381679  0.7490646819328219
  0.2483496392655127  0.2563085642381679  0.5009353180671781
  0.7483496392655127  0.2563085642381679  0.5009353180671781
  0.2483496392655127  0.7563085642381679  0.5009353180671781
  0.7483496392655127  0.7563085642381679  0.5009353180671781
  0.0016503607344873  0.2563085642381679  0.2490646819328219
  0.5016503607344873  0.2563085642381679  0.2490646819328219
  0.0016503607344873  0.7563085642381679  0.2490646819328219
  0.5016503607344873  0.7563085642381679  0.2490646819328219
 
  0.00000000E+00  0.00000000E+00  0.00000000E+00
  0.00000000E+00  0.00000000E+00  0.00000000E+00
  0.00000000E+00  0.00000000E+00  0.00000000E+00
  0.00000000E+00  0.00000000E+00  0.00000000E+00
  0.00000000E+00  0.00000000E+00  0.00000000E+00
  0.00000000E+00  0.00000000E+00  0.00000000E+00
  0.00000000E+00  0.00000000E+00  0.00000000E+00
  0.00000000E+00  0.00000000E+00  0.00000000E+00
  0.00000000E+00  0.00000000E+00  0.00000000E+00
  0.00000000E+00  0.00000000E+00  0.00000000E+00
  0.00000000E+00  0.00000000E+00  0.00000000E+00
  0.00000000E+00  0.00000000E+00  0.00000000E+00
  0.00000000E+00  0.00000000E+00  0.00000000E+00
  0.00000000E+00  0.00000000E+00  0.00000000E+00
  0.00000000E+00  0.00000000E+00  0.00000000E+00
  0.00000000E+00  0.00000000E+00  0.00000000E+00
  0.00000000E+00  0.00000000E+00  0.00000000E+00
  0.00000000E+00  0.00000000E+00  0.00000000E+00
  0.00000000E+00  0.00000000E+00  0.00000000E+00
  0.00000000E+00  0.00000000E+00  0.00000000E+00
  0.00000000E+00  0.00000000E+00  0.00000000E+00
  0.00000000E+00  0.00000000E+00  0.00000000E+00
  0.00000000E+00  0.00000000E+00  0.00000000E+00
  0.00000000E+00  0.00000000E+00  0.00000000E+00
  0.00000000E+00  0.00000000E+00  0.00000000E+00
  0.00000000E+00  0.00000000E+00  0.00000000E+00
  0.00000000E+00  0.00000000E+00  0.00000000E+00
  0.00000000E+00  0.00000000E+00  0.00000000E+00
  0.00000000E+00  0.00000000E+00  0.00000000E+00
  0.00000000E+00  0.00000000E+00  0.00000000E+00
  0.00000000E+00  0.00000000E+00  0.00000000E+00
  0.00000000E+00  0.00000000E+00  0.00000000E+00
  0.00000000E+00  0.00000000E+00  0.00000000E+00
  0.00000000E+00  0.00000000E+00  0.00000000E+00
  0.00000000E+00  0.00000000E+00  0.00000000E+00
  0.00000000E+00  0.00000000E+00  0.00000000E+00
  0.00000000E+00  0.00000000E+00  0.00000000E+00
  0.00000000E+00  0.00000000E+00  0.00000000E+00
  0.00000000E+00  0.00000000E+00  0.00000000E+00
  0.00000000E+00  0.00000000E+00  0.00000000E+00
  0.00000000E+00  0.00000000E+00  0.00000000E+00
  0.00000000E+00  0.00000000E+00  0.00000000E+00
  0.00000000E+00  0.00000000E+00  0.00000000E+00
  0.00000000E+00  0.00000000E+00  0.00000000E+00
  0.00000000E+00  0.00000000E+00  0.00000000E+00
  0.00000000E+00  0.00000000E+00  0.00000000E+00
  0.00000000E+00  0.00000000E+00  0.00000000E+00
  0.00000000E+00  0.00000000E+00  0.00000000E+00
  0.00000000E+00  0.00000000E+00  0.00000000E+00
  0.00000000E+00  0.00000000E+00  0.00000000E+00
  0.00000000E+00  0.00000000E+00  0.00000000E+00
  0.00000000E+00  0.00000000E+00  0.00000000E+00
  0.00000000E+00  0.00000000E+00  0.00000000E+00
  0.00000000E+00  0.00000000E+00  0.00000000E+00
  0.00000000E+00  0.00000000E+00  0.00000000E+00
  0.00000000E+00  0.00000000E+00  0.00000000E+00
  0.00000000E+00  0.00000000E+00  0.00000000E+00
  0.00000000E+00  0.00000000E+00  0.00000000E+00
  0.00000000E+00  0.00000000E+00  0.00000000E+00
  0.00000000E+00  0.00000000E+00  0.00000000E+00
  0.00000000E+00  0.00000000E+00  0.00000000E+00
  0.00000000E+00  0.00000000E+00  0.00000000E+00
  0.00000000E+00  0.00000000E+00  0.00000000E+00
  0.00000000E+00  0.00000000E+00  0.00000000E+00
