Fe16 Cu16 S32
1.0
10.511933 0.091652 0.000000
0.091652 10.511933 0.000000
0.000000 0.000000 10.415837
S Cu Fe
32 16 16
direct
0.126155 0.125108 0.124026 S
0.626155 0.125108 0.124026 S
0.126155 0.625108 0.124026 S
0.626155 0.625108 0.124026 S
0.373845 0.374892 0.124026 S
0.873845 0.374892 0.124026 S
0.373845 0.874892 0.124026 S
0.873845 0.874892 0.124026 S
0.124892 0.373845 0.874026 S
0.624892 0.373845 0.874026 S
0.124892 0.873845 0.874026 S
0.624892 0.873845 0.874026 S
0.375108 0.126155 0.874026 S
0.875108 0.126155 0.874026 S
0.375108 0.626155 0.874026 S
0.875108 0.626155 0.874026 S
0.123845 0.124892 0.624026 S
0.623845 0.124892 0.624026 S
0.123845 0.624892 0.624026 S
0.623845 0.624892 0.624026 S
0.376155 0.375108 0.624026 S
0.876155 0.375108 0.624026 S
0.376155 0.875108 0.624026 S
0.876155 0.875108 0.624026 S
0.374892 0.123845 0.374026 S
0.874892 0.123845 0.374026 S
0.374892 0.623845 0.374026 S
0.874892 0.623845 0.374026 S
0.125108 0.376155 0.374026 S
0.625108 0.376155 0.374026 S
0.125108 0.876155 0.374026 S
0.625108 0.876155 0.374026 S
0.000000 0.000000 0.500831 Cu
0.500000 0.000000 0.500831 Cu
0.000000 0.500000 0.500831 Cu
0.500000 0.500000 0.500831 Cu
0.250000 0.000000 0.250831 Cu
0.750000 0.000000 0.250831 Cu
0.250000 0.500000 0.250831 Cu
0.750000 0.500000 0.250831 Cu
0.250000 0.250000 0.000831 Cu
0.750000 0.250000 0.000831 Cu
0.250000 0.750000 0.000831 Cu
0.750000 0.750000 0.000831 Cu
0.000000 0.250000 0.750831 Cu
0.500000 0.250000 0.750831 Cu
0.000000 0.750000 0.750831 Cu
0.500000 0.750000 0.750831 Cu
0.000000 0.000000 0.001117 Fe
0.500000 0.000000 0.001117 Fe
0.000000 0.500000 0.001117 Fe
0.500000 0.500000 0.001117 Fe
0.250000 0.000000 0.751117 Fe
0.750000 0.000000 0.751117 Fe
0.250000 0.500000 0.751117 Fe
0.750000 0.500000 0.751117 Fe
0.250000 0.250000 0.501117 Fe
0.750000 0.250000 0.501117 Fe
0.250000 0.750000 0.501117 Fe
0.750000 0.750000 0.501117 Fe
0.000000 0.250000 0.251117 Fe
0.500000 0.250000 0.251117 Fe
0.000000 0.750000 0.251117 Fe
0.500000 0.750000 0.251117 Fe
