generated by phonopy                    
   1.00000000000000     
    10.5159301757999994    0.0000000000000000    0.0000000000000000
     0.0000000000000000   10.5259319496843240    0.0000000000000000
     1.0882301070000000    0.0000000000000000   10.3538178480000003
   S    Cu   Fe
    32    16    16
Direct
  0.1264051444024332  0.1183054670862731  0.1260068963412095
  0.6264051294024284  0.1183054670862731  0.1260068963412095
  0.1264051444024332  0.6183054670862802  0.1260068963412095
  0.6264051294024284  0.6183054670862802  0.1260068963412095
  0.3735948705975645  0.3683054670862802  0.1239931036587905
  0.8735948705975716  0.3683054670862802  0.1239931036587905
  0.3735948705975645  0.8683054670862802  0.1239931036587905
  0.8735948705975716  0.8683054670862802  0.1239931036587905
  0.1250000000000000  0.3698465437995750  0.8750000000000000
  0.6250000000000000  0.3698465437995750  0.8750000000000000
  0.1250000000000000  0.8698465437995822  0.8750000000000000
  0.6250000000000000  0.8698465437995822  0.8750000000000000
  0.3750000000000000  0.1214749377456172  0.8750000000000000
  0.8750000000000000  0.1214749377456172  0.8750000000000000
  0.3750000000000000  0.6214749227456053  0.8750000000000000
  0.8750000000000000  0.6214749227456053  0.8750000000000000
  0.1235948625975709  0.1183054670862731  0.6239931036587976
  0.6235948705975716  0.1183054670862731  0.6239931036587976
  0.1235948625975709  0.6183054670862802  0.6239931036587976
  0.6235948705975716  0.6183054670862802  0.6239931036587976
  0.3764051294024355  0.3683054670862802  0.6260068963412024
  0.8764051294024284  0.3683054670862802  0.6260068963412024
  0.3764051294024355  0.8683054670862802  0.6260068963412024
  0.8764051294024284  0.8683054670862802  0.6260068963412024
  0.3750000000000000  0.1198465357995815  0.3750000000000000
  0.8750000000000000  0.1198465357995815  0.3750000000000000
  0.3750000000000000  0.6198465437995822  0.3750000000000000
  0.8750000000000000  0.6198465437995822  0.3750000000000000
  0.1250000000000000  0.3714749227456124  0.3750000000000000
  0.6250000000000000  0.3714749227456124  0.3750000000000000
  0.1250000000000000  0.8714749227456053  0.3750000000000000
  0.6250000000000000  0.8714749227456053  0.3750000000000000
  0.9976679044723937  0.0056138981526885  0.4999940106640537
  0.4976679044723937  0.0056138981526885  0.4999940106640537
  0.9976679044723937  0.5056138981526814  0.4999940106640537
  0.4976679044723937  0.5056138981526814  0.4999940106640537
  0.2523320955276063  0.0056138981526885  0.2500059893359463
  0.7523320955276063  0.0056138981526885  0.2500059893359463
  0.2523320955276063  0.5056138981526814  0.2500059893359463
  0.7523320955276063  0.5056138981526814  0.2500059893359463
  0.2476679044723937  0.2556138981526885  0.9999940106640466
  0.7476679044723937  0.2556138981526885  0.9999940106640466
  0.2476679044723937  0.7556138981526814  0.9999940106640466
  0.7476679044723937  0.7556138981526814  0.9999940106640466
  0.0023320955276063  0.2556138981526885  0.7500059893359534
  0.5023320955276063  0.2556138981526885  0.7500059893359534
  0.0023320955276063  0.7556138981526814  0.7500059893359534
  0.5023320955276063  0.7556138981526814  0.7500059893359534
  0.9986797920362918  0.0054199014884375  0.0006662174001448
  0.4986797920362918  0.0054199014884375  0.0006662174001448
  0.9986797920362918  0.5054199014884446  0.0006662174001448
  0.4986797920362918  0.5054199014884446  0.0006662174001448
  0.2513202079637082  0.0054199014884375  0.7493337825998623
  0.7513202079637011  0.0054199014884375  0.7493337825998623
  0.2513202079637082  0.5054199014884446  0.7493337825998623
  0.7513202079637011  0.5054199014884446  0.7493337825998623
  0.2486797920362918  0.2554199014884375  0.5006662174001377
  0.7486797920362989  0.2554199014884375  0.5006662174001377
  0.2486797920362918  0.7554199014884446  0.5006662174001377
  0.7486797920362989  0.7554199014884446  0.5006662174001377
  0.0013202079637082  0.2554199014884375  0.2493337825998552
  0.5013202079637011  0.2554199014884375  0.2493337825998552
  0.0013202079637082  0.7554199014884446  0.2493337825998552
  0.5013202079637011  0.7554199014884446  0.2493337825998552
 
  0.00000000E+00  0.00000000E+00  0.00000000E+00
  0.00000000E+00  0.00000000E+00  0.00000000E+00
  0.00000000E+00  0.00000000E+00  0.00000000E+00
  0.00000000E+00  0.00000000E+00  0.00000000E+00
  0.00000000E+00  0.00000000E+00  0.00000000E+00
  0.00000000E+00  0.00000000E+00  0.00000000E+00
  0.00000000E+00  0.00000000E+00  0.00000000E+00
  0.00000000E+00  0.00000000E+00  0.00000000E+00
  0.00000000E+00  0.00000000E+00  0.00000000E+00
  0.00000000E+00  0.00000000E+00  0.00000000E+00
  0.00000000E+00  0.00000000E+00  0.00000000E+00
  0.00000000E+00  0.00000000E+00  0.00000000E+00
  0.00000000E+00  0.00000000E+00  0.00000000E+00
  0.00000000E+00  0.00000000E+00  0.00000000E+00
  0.00000000E+00  0.00000000E+00  0.00000000E+00
  0.00000000E+00  0.00000000E+00  0.00000000E+00
  0.00000000E+00  0.00000000E+00  0.00000000E+00
  0.00000000E+00  0.00000000E+00  0.00000000E+00
  0.00000000E+00  0.00000000E+00  0.00000000E+00
  0.00000000E+00  0.00000000E+00  0.00000000E+00
  0.00000000E+00  0.00000000E+00  0.00000000E+00
  0.00000000E+00  0.00000000E+00  0.00000000E+00
  0.00000000E+00  0.00000000E+00  0.00000000E+00
  0.00000000E+00  0.00000000E+00  0.00000000E+00
  0.00000000E+00  0.00000000E+00  0.00000000E+00
  0.00000000E+00  0.00000000E+00  0.00000000E+00
  0.00000000E+00  0.00000000E+00  0.00000000E+00
  0.00000000E+00  0.00000000E+00  0.00000000E+00
  0.00000000E+00  0.00000000E+00  0.00000000E+00
  0.00000000E+00  0.00000000E+00  0.00000000E+00
  0.00000000E+00  0.00000000E+00  0.00000000E+00
  0.00000000E+00  0.00000000E+00  0.00000000E+00
  0.00000000E+00  0.00000000E+00  0.00000000E+00
  0.00000000E+00  0.00000000E+00  0.00000000E+00
  0.00000000E+00  0.00000000E+00  0.00000000E+00
  0.00000000E+00  0.00000000E+00  0.00000000E+00
  0.00000000E+00  0.00000000E+00  0.00000000E+00
  0.00000000E+00  0.00000000E+00  0.00000000E+00
  0.00000000E+00  0.00000000E+00  0.00000000E+00
  0.00000000E+00  0.00000000E+00  0.00000000E+00
  0.00000000E+00  0.00000000E+00  0.00000000E+00
  0.00000000E+00  0.00000000E+00  0.00000000E+00
  0.00000000E+00  0.00000000E+00  0.00000000E+00
  0.00000000E+00  0.00000000E+00  0.00000000E+00
  0.00000000E+00  0.00000000E+00  0.00000000E+00
  0.00000000E+00  0.00000000E+00  0.00000000E+00
  0.00000000E+00  0.00000000E+00  0.00000000E+00
  0.00000000E+00  0.00000000E+00  0.00000000E+00
  0.00000000E+00  0.00000000E+00  0.00000000E+00
  0.00000000E+00  0.00000000E+00  0.00000000E+00
  0.00000000E+00  0.00000000E+00  0.00000000E+00
  0.00000000E+00  0.00000000E+00  0.00000000E+00
  0.00000000E+00  0.00000000E+00  0.00000000E+00
  0.00000000E+00  0.00000000E+00  0.00000000E+00
  0.00000000E+00  0.00000000E+00  0.00000000E+00
  0.00000000E+00  0.00000000E+00  0.00000000E+00
  0.00000000E+00  0.00000000E+00  0.00000000E+00
  0.00000000E+00  0.00000000E+00  0.00000000E+00
  0.00000000E+00  0.00000000E+00  0.00000000E+00
  0.00000000E+00  0.00000000E+00  0.00000000E+00
  0.00000000E+00  0.00000000E+00  0.00000000E+00
  0.00000000E+00  0.00000000E+00  0.00000000E+00
  0.00000000E+00  0.00000000E+00  0.00000000E+00
  0.00000000E+00  0.00000000E+00  0.00000000E+00
