Fe16 Cu16 S32
1.0
10.509532 0.146644 0.000000
0.146644 10.509532 0.000000
0.000000 0.000000 10.418680
S Cu Fe
32 16 16
direct
0.126145 0.125161 0.123446 S
0.626145 0.125161 0.123446 S
0.126145 0.625161 0.123446 S
0.626145 0.625161 0.123446 S
0.373855 0.374839 0.123446 S
0.873855 0.374839 0.123446 S
0.373855 0.874839 0.123446 S
0.873855 0.874839 0.123446 S
0.124839 0.373855 0.873446 S
0.624839 0.373855 0.873446 S
0.124839 0.873855 0.873446 S
0.624839 0.873855 0.873446 S
0.375161 0.126145 0.873446 S
0.875161 0.126145 0.873446 S
0.375161 0.626145 0.873446 S
0.875161 0.626145 0.873446 S
0.123855 0.124839 0.623446 S
0.623855 0.124839 0.623446 S
0.123855 0.624839 0.623446 S
0.623855 0.624839 0.623446 S
0.376145 0.375161 0.623446 S
0.876145 0.375161 0.623446 S
0.376145 0.875161 0.623446 S
0.876145 0.875161 0.623446 S
0.374839 0.123855 0.373446 S
0.874839 0.123855 0.373446 S
0.374839 0.623855 0.373446 S
0.874839 0.623855 0.373446 S
0.125161 0.376145 0.373446 S
0.625161 0.376145 0.373446 S
0.125161 0.876145 0.373446 S
0.625161 0.876145 0.373446 S
0.000000 0.000000 0.501352 Cu
0.500000 0.000000 0.501352 Cu
0.000000 0.500000 0.501352 Cu
0.500000 0.500000 0.501352 Cu
0.250000 0.000000 0.251352 Cu
0.750000 0.000000 0.251352 Cu
0.250000 0.500000 0.251352 Cu
0.750000 0.500000 0.251352 Cu
0.250000 0.250000 0.001352 Cu
0.750000 0.250000 0.001352 Cu
0.250000 0.750000 0.001352 Cu
0.750000 0.750000 0.001352 Cu
0.000000 0.250000 0.751352 Cu
0.500000 0.250000 0.751352 Cu
0.000000 0.750000 0.751352 Cu
0.500000 0.750000 0.751352 Cu
0.000000 0.000000 0.001757 Fe
0.500000 0.000000 0.001757 Fe
0.000000 0.500000 0.001757 Fe
0.500000 0.500000 0.001757 Fe
0.250000 0.000000 0.751757 Fe
0.750000 0.000000 0.751757 Fe
0.250000 0.500000 0.751757 Fe
0.750000 0.500000 0.751757 Fe
0.250000 0.250000 0.501757 Fe
0.750000 0.250000 0.501757 Fe
0.250000 0.750000 0.501757 Fe
0.750000 0.750000 0.501757 Fe
0.000000 0.250000 0.251757 Fe
0.500000 0.250000 0.251757 Fe
0.000000 0.750000 0.251757 Fe
0.500000 0.750000 0.251757 Fe
