Fe16 Cu16 S32                           
   1.00000000000000     
    10.4839219999999997    0.7332190000000000    0.0000000000000000
     0.7332190000000000   10.4839219999999997    0.0000000000000000
     0.0000000000000000    0.0000000000000000   10.4445828007580079
   S    Cu   Fe
    32    16    16
Direct
  0.1260187758786060  0.1257982494177838  0.1174057652931921
  0.6260187758786060  0.1257982494177838  0.1174057652931921
  0.1260187758786060  0.6257982494177838  0.1174057652931921
  0.6260187758786060  0.6257982494177838  0.1174057652931921
  0.3739812241213940  0.3742017505822162  0.1174057652931921
  0.8739812241213940  0.3742017505822162  0.1174057652931921
  0.3739812241213940  0.8742017505822162  0.1174057652931921
  0.8739812241213940  0.8742017505822162  0.1174057652931921
  0.1242017505822162  0.3739812241213940  0.8674057652931921
  0.6242017505822162  0.3739812241213940  0.8674057652931921
  0.1242017505822162  0.8739812241213940  0.8674057652931921
  0.6242017505822162  0.8739812241213940  0.8674057652931921
  0.3757982494177838  0.1260187758786060  0.8674057652931921
  0.8757982494177838  0.1260187758786060  0.8674057652931921
  0.3757982494177838  0.6260187758786060  0.8674057652931921
  0.8757982494177838  0.6260187758786060  0.8674057652931921
  0.1239812241213940  0.1242017505822162  0.6174057652931921
  0.6239812241213940  0.1242017505822162  0.6174057652931921
  0.1239812241213940  0.6242017505822162  0.6174057652931921
  0.6239812241213940  0.6242017505822162  0.6174057652931921
  0.3760187758786060  0.3757982494177838  0.6174057652931921
  0.8760187758786060  0.3757982494177838  0.6174057652931921
  0.3760187758786060  0.8757982494177838  0.6174057652931921
  0.8760187758786060  0.8757982494177838  0.6174057652931921
  0.3742017505822162  0.1239812241213940  0.3674057652931921
  0.8742017505822162  0.1239812241213940  0.3674057652931921
  0.3742017505822162  0.6239812241213940  0.3674057652931921
  0.8742017505822162  0.6239812241213940  0.3674057652931921
  0.1257982494177838  0.3760187758786060  0.3674057652931921
  0.6257982494177838  0.3760187758786060  0.3674057652931921
  0.1257982494177838  0.8760187758786060  0.3674057652931921
  0.6257982494177838  0.8760187758786060  0.3674057652931921
  0.0000000000000000  0.0000000000000000  0.5065572634459556
  0.5000000000000000  0.0000000000000000  0.5065572634459556
  0.0000000000000000  0.5000000000000000  0.5065572634459556
  0.5000000000000000  0.5000000000000000  0.5065572634459556
  0.2500000000000000  0.0000000000000000  0.2565572634459556
  0.7500000000000000  0.0000000000000000  0.2565572634459556
  0.2500000000000000  0.5000000000000000  0.2565572634459556
  0.7500000000000000  0.5000000000000000  0.2565572634459556
  0.2500000000000000  0.2500000000000000  0.0065572634459556
  0.7500000000000000  0.2500000000000000  0.0065572634459556
  0.2500000000000000  0.7500000000000000  0.0065572634459556
  0.7500000000000000  0.7500000000000000  0.0065572634459556
  0.0000000000000000  0.2500000000000000  0.7565572634459556
  0.5000000000000000  0.2500000000000000  0.7565572634459556
  0.0000000000000000  0.7500000000000000  0.7565572634459556
  0.5000000000000000  0.7500000000000000  0.7565572634459556
  0.0000000000000000  0.0000000000000000  0.0086312059676530
  0.5000000000000000  0.0000000000000000  0.0086312059676530
  0.0000000000000000  0.5000000000000000  0.0086312059676530
  0.5000000000000000  0.5000000000000000  0.0086312059676530
  0.2500000000000000  0.0000000000000000  0.7586312059676530
  0.7500000000000000  0.0000000000000000  0.7586312059676530
  0.2500000000000000  0.5000000000000000  0.7586312059676530
  0.7500000000000000  0.5000000000000000  0.7586312059676530
  0.2500000000000000  0.2500000000000000  0.5086312059676530
  0.7500000000000000  0.2500000000000000  0.5086312059676530
  0.2500000000000000  0.7500000000000000  0.5086312059676530
  0.7500000000000000  0.7500000000000000  0.5086312059676530
  0.0000000000000000  0.2500000000000000  0.2586312059676530
  0.5000000000000000  0.2500000000000000  0.2586312059676530
  0.0000000000000000  0.7500000000000000  0.2586312059676530
  0.5000000000000000  0.7500000000000000  0.2586312059676530
 
  0.00000000E+00  0.00000000E+00  0.00000000E+00
  0.00000000E+00  0.00000000E+00  0.00000000E+00
  0.00000000E+00  0.00000000E+00  0.00000000E+00
  0.00000000E+00  0.00000000E+00  0.00000000E+00
  0.00000000E+00  0.00000000E+00  0.00000000E+00
  0.00000000E+00  0.00000000E+00  0.00000000E+00
  0.00000000E+00  0.00000000E+00  0.00000000E+00
  0.00000000E+00  0.00000000E+00  0.00000000E+00
  0.00000000E+00  0.00000000E+00  0.00000000E+00
  0.00000000E+00  0.00000000E+00  0.00000000E+00
  0.00000000E+00  0.00000000E+00  0.00000000E+00
  0.00000000E+00  0.00000000E+00  0.00000000E+00
  0.00000000E+00  0.00000000E+00  0.00000000E+00
  0.00000000E+00  0.00000000E+00  0.00000000E+00
  0.00000000E+00  0.00000000E+00  0.00000000E+00
  0.00000000E+00  0.00000000E+00  0.00000000E+00
  0.00000000E+00  0.00000000E+00  0.00000000E+00
  0.00000000E+00  0.00000000E+00  0.00000000E+00
  0.00000000E+00  0.00000000E+00  0.00000000E+00
  0.00000000E+00  0.00000000E+00  0.00000000E+00
  0.00000000E+00  0.00000000E+00  0.00000000E+00
  0.00000000E+00  0.00000000E+00  0.00000000E+00
  0.00000000E+00  0.00000000E+00  0.00000000E+00
  0.00000000E+00  0.00000000E+00  0.00000000E+00
  0.00000000E+00  0.00000000E+00  0.00000000E+00
  0.00000000E+00  0.00000000E+00  0.00000000E+00
  0.00000000E+00  0.00000000E+00  0.00000000E+00
  0.00000000E+00  0.00000000E+00  0.00000000E+00
  0.00000000E+00  0.00000000E+00  0.00000000E+00
  0.00000000E+00  0.00000000E+00  0.00000000E+00
  0.00000000E+00  0.00000000E+00  0.00000000E+00
  0.00000000E+00  0.00000000E+00  0.00000000E+00
  0.00000000E+00  0.00000000E+00  0.00000000E+00
  0.00000000E+00  0.00000000E+00  0.00000000E+00
  0.00000000E+00  0.00000000E+00  0.00000000E+00
  0.00000000E+00  0.00000000E+00  0.00000000E+00
  0.00000000E+00  0.00000000E+00  0.00000000E+00
  0.00000000E+00  0.00000000E+00  0.00000000E+00
  0.00000000E+00  0.00000000E+00  0.00000000E+00
  0.00000000E+00  0.00000000E+00  0.00000000E+00
  0.00000000E+00  0.00000000E+00  0.00000000E+00
  0.00000000E+00  0.00000000E+00  0.00000000E+00
  0.00000000E+00  0.00000000E+00  0.00000000E+00
  0.00000000E+00  0.00000000E+00  0.00000000E+00
  0.00000000E+00  0.00000000E+00  0.00000000E+00
  0.00000000E+00  0.00000000E+00  0.00000000E+00
  0.00000000E+00  0.00000000E+00  0.00000000E+00
  0.00000000E+00  0.00000000E+00  0.00000000E+00
  0.00000000E+00  0.00000000E+00  0.00000000E+00
  0.00000000E+00  0.00000000E+00  0.00000000E+00
  0.00000000E+00  0.00000000E+00  0.00000000E+00
  0.00000000E+00  0.00000000E+00  0.00000000E+00
  0.00000000E+00  0.00000000E+00  0.00000000E+00
  0.00000000E+00  0.00000000E+00  0.00000000E+00
  0.00000000E+00  0.00000000E+00  0.00000000E+00
  0.00000000E+00  0.00000000E+00  0.00000000E+00
  0.00000000E+00  0.00000000E+00  0.00000000E+00
  0.00000000E+00  0.00000000E+00  0.00000000E+00
  0.00000000E+00  0.00000000E+00  0.00000000E+00
  0.00000000E+00  0.00000000E+00  0.00000000E+00
  0.00000000E+00  0.00000000E+00  0.00000000E+00
  0.00000000E+00  0.00000000E+00  0.00000000E+00
  0.00000000E+00  0.00000000E+00  0.00000000E+00
  0.00000000E+00  0.00000000E+00  0.00000000E+00
