Fe16 Cu16 S32
1.0
10.496316 0.000000 0.641982
0.000000 10.530414 0.000000
0.635567 0.000000 10.391431
S Cu Fe
32 16 16
direct
0.126499 0.117162 0.126161 S
0.626499 0.117162 0.126161 S
0.126499 0.617162 0.126161 S
0.626499 0.617162 0.126161 S
0.373501 0.367162 0.123839 S
0.873501 0.367162 0.123839 S
0.373501 0.867162 0.123839 S
0.873501 0.867162 0.123839 S
0.125000 0.369347 0.875000 S
0.625000 0.369347 0.875000 S
0.125000 0.869347 0.875000 S
0.625000 0.869347 0.875000 S
0.375000 0.120736 0.875000 S
0.875000 0.120736 0.875000 S
0.375000 0.620736 0.875000 S
0.875000 0.620736 0.875000 S
0.123501 0.117162 0.623839 S
0.623501 0.117162 0.623839 S
0.123501 0.617162 0.623839 S
0.623501 0.617162 0.623839 S
0.376499 0.367162 0.626161 S
0.876499 0.367162 0.626161 S
0.376499 0.867162 0.626161 S
0.876499 0.867162 0.626161 S
0.375000 0.119347 0.375000 S
0.875000 0.119347 0.375000 S
0.375000 0.619347 0.375000 S
0.875000 0.619347 0.375000 S
0.125000 0.370736 0.375000 S
0.625000 0.370736 0.375000 S
0.125000 0.870736 0.375000 S
0.625000 0.870736 0.375000 S
-0.002840 0.006488 0.500012 Cu
0.497160 0.006488 0.500012 Cu
-0.002840 0.506488 0.500012 Cu
0.497160 0.506488 0.500012 Cu
0.252840 0.006488 0.249988 Cu
0.752840 0.006488 0.249988 Cu
0.252840 0.506488 0.249988 Cu
0.752840 0.506488 0.249988 Cu
0.247160 0.256488 0.000012 Cu
0.747160 0.256488 0.000012 Cu
0.247160 0.756488 0.000012 Cu
0.747160 0.756488 0.000012 Cu
0.002840 0.256488 0.749988 Cu
0.502840 0.256488 0.749988 Cu
0.002840 0.756488 0.749988 Cu
0.502840 0.756488 0.749988 Cu
-0.001650 0.006309 0.000935 Fe
0.498350 0.006309 0.000935 Fe
-0.001650 0.506309 0.000935 Fe
0.498350 0.506309 0.000935 Fe
0.251650 0.006309 0.749065 Fe
0.751650 0.006309 0.749065 Fe
0.251650 0.506309 0.749065 Fe
0.751650 0.506309 0.749065 Fe
0.248350 0.256309 0.500935 Fe
0.748350 0.256309 0.500935 Fe
0.248350 0.756309 0.500935 Fe
0.748350 0.756309 0.500935 Fe
0.001650 0.256309 0.249065 Fe
0.501650 0.256309 0.249065 Fe
0.001650 0.756309 0.249065 Fe
0.501650 0.756309 0.249065 Fe
