Fe16 Cu16 S32
1.0
10.499929 0.366610 0.000000
0.366610 10.499929 0.000000
0.000000 0.000000 10.426884
S Cu Fe
32 16 16
direct
0.126086 0.125361 0.121252 S
0.626086 0.125361 0.121252 S
0.126086 0.625361 0.121252 S
0.626086 0.625361 0.121252 S
0.373914 0.374639 0.121252 S
0.873914 0.374639 0.121252 S
0.373914 0.874639 0.121252 S
0.873914 0.874639 0.121252 S
0.124639 0.373914 0.871252 S
0.624639 0.373914 0.871252 S
0.124639 0.873914 0.871252 S
0.624639 0.873914 0.871252 S
0.375361 0.126086 0.871252 S
0.875361 0.126086 0.871252 S
0.375361 0.626086 0.871252 S
0.875361 0.626086 0.871252 S
0.123914 0.124639 0.621252 S
0.623914 0.124639 0.621252 S
0.123914 0.624639 0.621252 S
0.623914 0.624639 0.621252 S
0.376086 0.375361 0.621252 S
0.876086 0.375361 0.621252 S
0.376086 0.875361 0.621252 S
0.876086 0.875361 0.621252 S
0.374639 0.123914 0.371252 S
0.874639 0.123914 0.371252 S
0.374639 0.623914 0.371252 S
0.874639 0.623914 0.371252 S
0.125361 0.376086 0.371252 S
0.625361 0.376086 0.371252 S
0.125361 0.876086 0.371252 S
0.625361 0.876086 0.371252 S
0.000000 0.000000 0.503279 Cu
0.500000 0.000000 0.503279 Cu
0.000000 0.500000 0.503279 Cu
0.500000 0.500000 0.503279 Cu
0.250000 0.000000 0.253279 Cu
0.750000 0.000000 0.253279 Cu
0.250000 0.500000 0.253279 Cu
0.750000 0.500000 0.253279 Cu
0.250000 0.250000 0.003279 Cu
0.750000 0.250000 0.003279 Cu
0.250000 0.750000 0.003279 Cu
0.750000 0.750000 0.003279 Cu
0.000000 0.250000 0.753279 Cu
0.500000 0.250000 0.753279 Cu
0.000000 0.750000 0.753279 Cu
0.500000 0.750000 0.753279 Cu
0.000000 0.000000 0.004217 Fe
0.500000 0.000000 0.004217 Fe
0.000000 0.500000 0.004217 Fe
0.500000 0.500000 0.004217 Fe
0.250000 0.000000 0.754217 Fe
0.750000 0.000000 0.754217 Fe
0.250000 0.500000 0.754217 Fe
0.750000 0.500000 0.754217 Fe
0.250000 0.250000 0.504217 Fe
0.750000 0.250000 0.504217 Fe
0.250000 0.750000 0.504217 Fe
0.750000 0.750000 0.504217 Fe
0.000000 0.250000 0.254217 Fe
0.500000 0.250000 0.254217 Fe
0.000000 0.750000 0.254217 Fe
0.500000 0.750000 0.254217 Fe
