Fe16 Cu16 S32
1.0
10.506208 0.000000 0.247521
0.000000 10.523704 0.000000
0.245048 0.000000 10.401225
S Cu Fe
32 16 16
direct
0.126346 0.121903 0.125442 S
0.626346 0.121903 0.125442 S
0.126346 0.621903 0.125442 S
0.626346 0.621903 0.125442 S
0.373654 0.371903 0.124558 S
0.873654 0.371903 0.124558 S
0.373654 0.871903 0.124558 S
0.873654 0.871903 0.124558 S
0.125000 0.372294 0.875000 S
0.625000 0.372294 0.875000 S
0.125000 0.872294 0.875000 S
0.625000 0.872294 0.875000 S
0.375000 0.124141 0.875000 S
0.875000 0.124141 0.875000 S
0.375000 0.624141 0.875000 S
0.875000 0.624141 0.875000 S
0.123654 0.121903 0.624558 S
0.623654 0.121903 0.624558 S
0.123654 0.621903 0.624558 S
0.623654 0.621903 0.624558 S
0.376346 0.371903 0.625442 S
0.876346 0.371903 0.625442 S
0.376346 0.871903 0.625442 S
0.876346 0.871903 0.625442 S
0.375000 0.122294 0.375000 S
0.875000 0.122294 0.375000 S
0.375000 0.622294 0.375000 S
0.875000 0.622294 0.375000 S
0.125000 0.374141 0.375000 S
0.625000 0.374141 0.375000 S
0.125000 0.874141 0.375000 S
0.625000 0.874141 0.375000 S
-0.001265 0.002451 0.500011 Cu
0.498735 0.002451 0.500011 Cu
-0.001265 0.502451 0.500011 Cu
0.498735 0.502451 0.500011 Cu
0.251265 0.002451 0.249989 Cu
0.751265 0.002451 0.249989 Cu
0.251265 0.502451 0.249989 Cu
0.751265 0.502451 0.249989 Cu
0.248735 0.252451 0.000011 Cu
0.748735 0.252451 0.000011 Cu
0.248735 0.752451 0.000011 Cu
0.748735 0.752451 0.000011 Cu
0.001265 0.252451 0.749989 Cu
0.501265 0.252451 0.749989 Cu
0.001265 0.752451 0.749989 Cu
0.501265 0.752451 0.749989 Cu
-0.000790 0.002429 0.000528 Fe
0.499210 0.002429 0.000528 Fe
-0.000790 0.502429 0.000528 Fe
0.499210 0.502429 0.000528 Fe
0.250790 0.002429 0.749472 Fe
0.750790 0.002429 0.749472 Fe
0.250790 0.502429 0.749472 Fe
0.750790 0.502429 0.749472 Fe
0.249210 0.252429 0.500528 Fe
0.749210 0.252429 0.500528 Fe
0.249210 0.752429 0.500528 Fe
0.749210 0.752429 0.500528 Fe
0.000790 0.252429 0.249472 Fe
0.500790 0.252429 0.249472 Fe
0.000790 0.752429 0.249472 Fe
0.500790 0.752429 0.249472 Fe
