Fe4 Cu4 S8                              
   1.00000000000000     
     5.2427770000000002    0.0000000000000000    0.3666670000000000
     0.0000000000000000    5.2749310234532096    0.0000000000000000
     0.7257169999999999    0.0000000000000000   10.3766490000000005
   S    Cu   Fe
     8     4     4
Direct
  0.2534538025063497  0.2318223700162889  0.1264665528362698
  0.7465461974936503  0.7318223700162747  0.1235334471637231
  0.2500000000000000  0.7378889275553959  0.8750000000000000
  0.7500000000000000  0.2404755078679415  0.8750000000000000
  0.2465461974936503  0.2318223700162889  0.6235334471637231
  0.7534538025063497  0.7318223700162747  0.6264665528362769
  0.7500000000000000  0.2378889275553888  0.3750000000000000
  0.2500000000000000  0.7404755078679273  0.3750000000000000
  0.9925701378967702  0.0144731675775418  0.5000697667984397
  0.5074298621032440  0.0144731675775418  0.2499302332015674
  0.4925701378967631  0.5144731675775489  0.0000697667984326
  0.0074298621032298  0.5144731675775489  0.7499302332015816
  0.9957924306806234  0.0145222446945112  0.0013311622072081
  0.5042075693193837  0.0145222446945112  0.7486688377927777
  0.4957924306806234  0.5145222446945112  0.5013311622072223
  0.0042075693193766  0.5145222446945112  0.2486688377927919
 
  0.00000000E+00  0.00000000E+00  0.00000000E+00
  0.00000000E+00  0.00000000E+00  0.00000000E+00
  0.00000000E+00  0.00000000E+00  0.00000000E+00
  0.00000000E+00  0.00000000E+00  0.00000000E+00
  0.00000000E+00  0.00000000E+00  0.00000000E+00
  0.00000000E+00  0.00000000E+00  0.00000000E+00
  0.00000000E+00  0.00000000E+00  0.00000000E+00
  0.00000000E+00  0.00000000E+00  0.00000000E+00
  0.00000000E+00  0.00000000E+00  0.00000000E+00
  0.00000000E+00  0.00000000E+00  0.00000000E+00
  0.00000000E+00  0.00000000E+00  0.00000000E+00
  0.00000000E+00  0.00000000E+00  0.00000000E+00
  0.00000000E+00  0.00000000E+00  0.00000000E+00
  0.00000000E+00  0.00000000E+00  0.00000000E+00
  0.00000000E+00  0.00000000E+00  0.00000000E+00
  0.00000000E+00  0.00000000E+00  0.00000000E+00
