Fe16 Cu16 S32
1.0
10.490725 0.577410 0.000000
0.577410 10.490725 0.000000
0.000000 0.000000 10.438392
S Cu Fe
32 16 16
direct
0.126061 0.125625 0.118979 S
0.626061 0.125625 0.118979 S
0.126061 0.625625 0.118979 S
0.626061 0.625625 0.118979 S
0.373939 0.374375 0.118979 S
0.873939 0.374375 0.118979 S
0.373939 0.874375 0.118979 S
0.873939 0.874375 0.118979 S
0.124375 0.373939 0.868979 S
0.624375 0.373939 0.868979 S
0.124375 0.873939 0.868979 S
0.624375 0.873939 0.868979 S
0.375625 0.126061 0.868979 S
0.875625 0.126061 0.868979 S
0.375625 0.626061 0.868979 S
0.875625 0.626061 0.868979 S
0.123939 0.124375 0.618979 S
0.623939 0.124375 0.618979 S
0.123939 0.624375 0.618979 S
0.623939 0.624375 0.618979 S
0.376061 0.375625 0.618979 S
0.876061 0.375625 0.618979 S
0.376061 0.875625 0.618979 S
0.876061 0.875625 0.618979 S
0.374375 0.123939 0.368979 S
0.874375 0.123939 0.368979 S
0.374375 0.623939 0.368979 S
0.874375 0.623939 0.368979 S
0.125625 0.376061 0.368979 S
0.625625 0.376061 0.368979 S
0.125625 0.876061 0.368979 S
0.625625 0.876061 0.368979 S
0.000000 0.000000 0.505222 Cu
0.500000 0.000000 0.505222 Cu
0.000000 0.500000 0.505222 Cu
0.500000 0.500000 0.505222 Cu
0.250000 0.000000 0.255222 Cu
0.750000 0.000000 0.255222 Cu
0.250000 0.500000 0.255222 Cu
0.750000 0.500000 0.255222 Cu
0.250000 0.250000 0.005222 Cu
0.750000 0.250000 0.005222 Cu
0.250000 0.750000 0.005222 Cu
0.750000 0.750000 0.005222 Cu
0.000000 0.250000 0.755222 Cu
0.500000 0.250000 0.755222 Cu
0.000000 0.750000 0.755222 Cu
0.500000 0.750000 0.755222 Cu
0.000000 0.000000 0.006820 Fe
0.500000 0.000000 0.006820 Fe
0.000000 0.500000 0.006820 Fe
0.500000 0.500000 0.006820 Fe
0.250000 0.000000 0.756820 Fe
0.750000 0.000000 0.756820 Fe
0.250000 0.500000 0.756820 Fe
0.750000 0.500000 0.756820 Fe
0.250000 0.250000 0.506820 Fe
0.750000 0.250000 0.506820 Fe
0.250000 0.750000 0.506820 Fe
0.750000 0.750000 0.506820 Fe
0.000000 0.250000 0.256820 Fe
0.500000 0.250000 0.256820 Fe
0.000000 0.750000 0.256820 Fe
0.500000 0.750000 0.256820 Fe
