Fe16 Cu16 S32
1.0
10.512011 0.000000 0.128396
0.000000 10.518831 0.000000
0.127113 0.000000 10.406969
S Cu Fe
32 16 16
direct
0.126226 0.123432 0.125232 S
0.626226 0.123432 0.125232 S
0.126226 0.623432 0.125232 S
0.626226 0.623432 0.125232 S
0.373774 0.373432 0.124768 S
0.873774 0.373432 0.124768 S
0.373774 0.873432 0.124768 S
0.873774 0.873432 0.124768 S
0.125000 0.372944 0.875000 S
0.625000 0.372944 0.875000 S
0.125000 0.872944 0.875000 S
0.625000 0.872944 0.875000 S
0.375000 0.125073 0.875000 S
0.875000 0.125073 0.875000 S
0.375000 0.625073 0.875000 S
0.875000 0.625073 0.875000 S
0.123774 0.123432 0.624768 S
0.623774 0.123432 0.624768 S
0.123774 0.623432 0.624768 S
0.623774 0.623432 0.624768 S
0.376226 0.373432 0.625232 S
0.876226 0.373432 0.625232 S
0.376226 0.873432 0.625232 S
0.876226 0.873432 0.625232 S
0.375000 0.122944 0.375000 S
0.875000 0.122944 0.375000 S
0.375000 0.622944 0.375000 S
0.875000 0.622944 0.375000 S
0.125000 0.375073 0.375000 S
0.625000 0.375073 0.375000 S
0.125000 0.875073 0.375000 S
0.625000 0.875073 0.375000 S
-0.000568 0.001298 0.500002 Cu
0.499432 0.001298 0.500002 Cu
-0.000568 0.501298 0.500002 Cu
0.499432 0.501298 0.500002 Cu
0.250568 0.001298 0.249998 Cu
0.750568 0.001298 0.249998 Cu
0.250568 0.501298 0.249998 Cu
0.750568 0.501298 0.249998 Cu
0.249432 0.251298 0.000002 Cu
0.749432 0.251298 0.000002 Cu
0.249432 0.751298 0.000002 Cu
0.749432 0.751298 0.000002 Cu
0.000568 0.251298 0.749998 Cu
0.500568 0.251298 0.749998 Cu
0.000568 0.751298 0.749998 Cu
0.500568 0.751298 0.749998 Cu
-0.000330 0.001262 0.000187 Fe
0.499670 0.001262 0.000187 Fe
-0.000330 0.501262 0.000187 Fe
0.499670 0.501262 0.000187 Fe
0.250330 0.001262 0.749813 Fe
0.750330 0.001262 0.749813 Fe
0.250330 0.501262 0.749813 Fe
0.750330 0.501262 0.749813 Fe
0.249670 0.251262 0.500187 Fe
0.749670 0.251262 0.500187 Fe
0.249670 0.751262 0.500187 Fe
0.749670 0.751262 0.500187 Fe
0.000330 0.251262 0.249813 Fe
0.500330 0.251262 0.249813 Fe
0.000330 0.751262 0.249813 Fe
0.500330 0.751262 0.249813 Fe
