sm_isp_SD0310437-standardized_unitcell  
   1.00000000000000     
     5.4691370817409348    0.0000000000000000    0.0000000000000000
     0.0000000000000000    4.9734384990282186    0.0000000000000000
     0.0000000000000000    0.0000000000000000   10.8246681340790722
   S    Cu   Fe
     8     4     4
Direct
  0.2520909099554629  0.2500000000000000  0.1250000000000000
  0.7479091200445325  0.7500000000000000  0.1250000000000000
  0.2500000000000000  0.7479914297087049  0.8750000000000000
  0.7500000000000000  0.2520086002912905  0.8750000000000000
  0.2479090900445300  0.2500000000000000  0.6250000000000000
  0.7520908799554675  0.7500000000000000  0.6250000000000000
  0.7500000000000000  0.2479913997087095  0.3750000000000000
  0.2500000000000000  0.7520085702912951  0.3750000000000000
  0.0000000000000000  0.0000000000000000  0.4995366089394579
  0.5000000000000000  0.0000000000000000  0.2504633910605421
  0.5000000000000000  0.5000000000000000  0.9995366089394579
  0.0000000000000000  0.5000000000000000  0.7504633910605421
  0.0000000000000000  0.0000000000000000  0.9998269517375817
  0.5000000000000000  0.0000000000000000  0.7501730482624183
  0.5000000000000000  0.5000000000000000  0.4998269517375746
  0.0000000000000000  0.5000000000000000  0.2501730482624254
 
  0.00000000E+00  0.00000000E+00  0.00000000E+00
  0.00000000E+00  0.00000000E+00  0.00000000E+00
  0.00000000E+00  0.00000000E+00  0.00000000E+00
  0.00000000E+00  0.00000000E+00  0.00000000E+00
  0.00000000E+00  0.00000000E+00  0.00000000E+00
  0.00000000E+00  0.00000000E+00  0.00000000E+00
  0.00000000E+00  0.00000000E+00  0.00000000E+00
  0.00000000E+00  0.00000000E+00  0.00000000E+00
  0.00000000E+00  0.00000000E+00  0.00000000E+00
  0.00000000E+00  0.00000000E+00  0.00000000E+00
  0.00000000E+00  0.00000000E+00  0.00000000E+00
  0.00000000E+00  0.00000000E+00  0.00000000E+00
  0.00000000E+00  0.00000000E+00  0.00000000E+00
  0.00000000E+00  0.00000000E+00  0.00000000E+00
  0.00000000E+00  0.00000000E+00  0.00000000E+00
  0.00000000E+00  0.00000000E+00  0.00000000E+00
