Fe16 Cu16 S32
1.0
10.509932 0.137478 0.000000
0.137478 10.509932 0.000000
0.000000 0.000000 10.418472
S Cu Fe
32 16 16
direct
0.126148 0.125167 0.123540 S
0.626148 0.125167 0.123540 S
0.126148 0.625167 0.123540 S
0.626148 0.625167 0.123540 S
0.373852 0.374833 0.123540 S
0.873852 0.374833 0.123540 S
0.373852 0.874833 0.123540 S
0.873852 0.874833 0.123540 S
0.124833 0.373852 0.873540 S
0.624833 0.373852 0.873540 S
0.124833 0.873852 0.873540 S
0.624833 0.873852 0.873540 S
0.375167 0.126148 0.873540 S
0.875167 0.126148 0.873540 S
0.375167 0.626148 0.873540 S
0.875167 0.626148 0.873540 S
0.123852 0.124833 0.623540 S
0.623852 0.124833 0.623540 S
0.123852 0.624833 0.623540 S
0.623852 0.624833 0.623540 S
0.376148 0.375167 0.623540 S
0.876148 0.375167 0.623540 S
0.376148 0.875167 0.623540 S
0.876148 0.875167 0.623540 S
0.374833 0.123852 0.373540 S
0.874833 0.123852 0.373540 S
0.374833 0.623852 0.373540 S
0.874833 0.623852 0.373540 S
0.125167 0.376148 0.373540 S
0.625167 0.376148 0.373540 S
0.125167 0.876148 0.373540 S
0.625167 0.876148 0.373540 S
0.000000 0.000000 0.501243 Cu
0.500000 0.000000 0.501243 Cu
0.000000 0.500000 0.501243 Cu
0.500000 0.500000 0.501243 Cu
0.250000 0.000000 0.251243 Cu
0.750000 0.000000 0.251243 Cu
0.250000 0.500000 0.251243 Cu
0.750000 0.500000 0.251243 Cu
0.250000 0.250000 0.001243 Cu
0.750000 0.250000 0.001243 Cu
0.250000 0.750000 0.001243 Cu
0.750000 0.750000 0.001243 Cu
0.000000 0.250000 0.751243 Cu
0.500000 0.250000 0.751243 Cu
0.000000 0.750000 0.751243 Cu
0.500000 0.750000 0.751243 Cu
0.000000 0.000000 0.001676 Fe
0.500000 0.000000 0.001676 Fe
0.000000 0.500000 0.001676 Fe
0.500000 0.500000 0.001676 Fe
0.250000 0.000000 0.751676 Fe
0.750000 0.000000 0.751676 Fe
0.250000 0.500000 0.751676 Fe
0.750000 0.500000 0.751676 Fe
0.250000 0.250000 0.501676 Fe
0.750000 0.250000 0.501676 Fe
0.250000 0.750000 0.501676 Fe
0.750000 0.750000 0.501676 Fe
0.000000 0.250000 0.251676 Fe
0.500000 0.250000 0.251676 Fe
0.000000 0.750000 0.251676 Fe
0.500000 0.750000 0.251676 Fe
