sm_isp_SD0310437-standardized_unitcell  
   1.00000000000000     
     4.9958463727441229    0.0000000000000000    0.0000000000000000
     0.0000000000000000    5.6239392367727401    0.0000000000000000
     0.0000000000000000    0.0000000000000000    9.8879180070914590
   S    Cu   Fe
     8     4     4
Direct
  0.2516539862514335  0.2500000000000000  0.1250000000000000
  0.7483460437485618  0.7500000000000000  0.1250000000000000
  0.2500000000000000  0.7469814104380248  0.8750000000000000
  0.7500000000000000  0.2530186195619777  0.8750000000000000
  0.2483460137485594  0.2500000000000000  0.6250000000000000
  0.7516539562514382  0.7500000000000000  0.6250000000000000
  0.7500000000000000  0.2469813804380223  0.3750000000000000
  0.2500000000000000  0.7530185895619752  0.3750000000000000
  0.0000000000000000  0.0000000000000000  0.5012161549433998
  0.5000000000000000  0.0000000000000000  0.2487838450566073
  0.5000000000000000  0.5000000000000000  0.0012161549433927
  0.0000000000000000  0.5000000000000000  0.7487838450566002
  0.0000000000000000  0.0000000000000000  0.9998488411350763
  0.5000000000000000  0.0000000000000000  0.7501511588649308
  0.5000000000000000  0.5000000000000000  0.4998488411350763
  0.0000000000000000  0.5000000000000000  0.2501511588649166
 
  0.00000000E+00  0.00000000E+00  0.00000000E+00
  0.00000000E+00  0.00000000E+00  0.00000000E+00
  0.00000000E+00  0.00000000E+00  0.00000000E+00
  0.00000000E+00  0.00000000E+00  0.00000000E+00
  0.00000000E+00  0.00000000E+00  0.00000000E+00
  0.00000000E+00  0.00000000E+00  0.00000000E+00
  0.00000000E+00  0.00000000E+00  0.00000000E+00
  0.00000000E+00  0.00000000E+00  0.00000000E+00
  0.00000000E+00  0.00000000E+00  0.00000000E+00
  0.00000000E+00  0.00000000E+00  0.00000000E+00
  0.00000000E+00  0.00000000E+00  0.00000000E+00
  0.00000000E+00  0.00000000E+00  0.00000000E+00
  0.00000000E+00  0.00000000E+00  0.00000000E+00
  0.00000000E+00  0.00000000E+00  0.00000000E+00
  0.00000000E+00  0.00000000E+00  0.00000000E+00
  0.00000000E+00  0.00000000E+00  0.00000000E+00
