Fe16 Cu16 S32
1.0
10.514852 0.000000 0.082582
0.000000 10.516793 0.000000
0.081757 0.000000 10.409782
S Cu Fe
32 16 16
direct
0.126174 0.124015 0.125154 S
0.626174 0.124015 0.125154 S
0.126174 0.624015 0.125154 S
0.626174 0.624015 0.125154 S
0.373826 0.374015 0.124846 S
0.873826 0.374015 0.124846 S
0.373826 0.874015 0.124846 S
0.873826 0.874015 0.124846 S
0.125000 0.373179 0.875000 S
0.625000 0.373179 0.875000 S
0.125000 0.873179 0.875000 S
0.625000 0.873179 0.875000 S
0.375000 0.125443 0.875000 S
0.875000 0.125443 0.875000 S
0.375000 0.625443 0.875000 S
0.875000 0.625443 0.875000 S
0.123826 0.124015 0.624846 S
0.623826 0.124015 0.624846 S
0.123826 0.624015 0.624846 S
0.623826 0.624015 0.624846 S
0.376174 0.374015 0.625154 S
0.876174 0.374015 0.625154 S
0.376174 0.874015 0.625154 S
0.876174 0.874015 0.625154 S
0.375000 0.123179 0.375000 S
0.875000 0.123179 0.375000 S
0.375000 0.623179 0.375000 S
0.875000 0.623179 0.375000 S
0.125000 0.375443 0.375000 S
0.625000 0.375443 0.375000 S
0.125000 0.875443 0.375000 S
0.625000 0.875443 0.375000 S
-0.000302 0.000858 0.499998 Cu
0.499698 0.000858 0.499998 Cu
-0.000302 0.500858 0.499998 Cu
0.499698 0.500858 0.499998 Cu
0.250302 0.000858 0.250002 Cu
0.750302 0.000858 0.250002 Cu
0.250302 0.500858 0.250002 Cu
0.750302 0.500858 0.250002 Cu
0.249698 0.250858 -0.000002 Cu
0.749698 0.250858 -0.000002 Cu
0.249698 0.750858 -0.000002 Cu
0.749698 0.750858 -0.000002 Cu
0.000302 0.250858 0.750002 Cu
0.500302 0.250858 0.750002 Cu
0.000302 0.750858 0.750002 Cu
0.500302 0.750858 0.750002 Cu
-0.000156 0.000816 0.000044 Fe
0.499844 0.000816 0.000044 Fe
-0.000156 0.500816 0.000044 Fe
0.499844 0.500816 0.000044 Fe
0.250156 0.000816 0.749956 Fe
0.750156 0.000816 0.749956 Fe
0.250156 0.500816 0.749956 Fe
0.750156 0.500816 0.749956 Fe
0.249844 0.250816 0.500044 Fe
0.749844 0.250816 0.500044 Fe
0.249844 0.750816 0.500044 Fe
0.749844 0.750816 0.500044 Fe
0.000156 0.250816 0.249956 Fe
0.500156 0.250816 0.249956 Fe
0.000156 0.750816 0.249956 Fe
0.500156 0.750816 0.249956 Fe
