Fe16 Cu16 S32
1.0
10.513409 0.000000 0.192692
0.000000 10.517938 0.000000
0.190767 0.000000 10.408354
S Cu Fe
32 16 16
direct
0.126197 0.122702 0.125359 S
0.626197 0.122702 0.125359 S
0.126197 0.622702 0.125359 S
0.626197 0.622702 0.125359 S
0.373803 0.372702 0.124641 S
0.873803 0.372702 0.124641 S
0.373803 0.872702 0.124641 S
0.873803 0.872702 0.124641 S
0.125000 0.372294 0.875000 S
0.625000 0.372294 0.875000 S
0.125000 0.872294 0.875000 S
0.625000 0.872294 0.875000 S
0.375000 0.124490 0.875000 S
0.875000 0.124490 0.875000 S
0.375000 0.624490 0.875000 S
0.875000 0.624490 0.875000 S
0.123803 0.122702 0.624641 S
0.623803 0.122702 0.624641 S
0.123803 0.622702 0.624641 S
0.623803 0.622702 0.624641 S
0.376197 0.372702 0.625359 S
0.876197 0.372702 0.625359 S
0.376197 0.872702 0.625359 S
0.876197 0.872702 0.625359 S
0.375000 0.122294 0.375000 S
0.875000 0.122294 0.375000 S
0.375000 0.622294 0.375000 S
0.875000 0.622294 0.375000 S
0.125000 0.374490 0.375000 S
0.625000 0.374490 0.375000 S
0.125000 0.874490 0.375000 S
0.625000 0.874490 0.375000 S
-0.000704 0.002002 0.499994 Cu
0.499296 0.002002 0.499994 Cu
-0.000704 0.502002 0.499994 Cu
0.499296 0.502002 0.499994 Cu
0.250704 0.002002 0.250006 Cu
0.750704 0.002002 0.250006 Cu
0.250704 0.502002 0.250006 Cu
0.750704 0.502002 0.250006 Cu
0.249295 0.252003 -0.000005 Cu
0.749295 0.252003 -0.000005 Cu
0.249295 0.752003 -0.000005 Cu
0.749295 0.752003 -0.000005 Cu
0.000705 0.252003 0.750005 Cu
0.500705 0.252003 0.750005 Cu
0.000705 0.752003 0.750005 Cu
0.500705 0.752003 0.750005 Cu
-0.000363 0.001904 0.000104 Fe
0.499637 0.001904 0.000104 Fe
-0.000363 0.501904 0.000104 Fe
0.499637 0.501904 0.000104 Fe
0.250363 0.001904 0.749896 Fe
0.750363 0.001904 0.749896 Fe
0.250363 0.501904 0.749896 Fe
0.750363 0.501904 0.749896 Fe
0.249637 0.251904 0.500104 Fe
0.749637 0.251904 0.500104 Fe
0.249637 0.751904 0.500104 Fe
0.749637 0.751904 0.500104 Fe
0.000363 0.251904 0.249896 Fe
0.500363 0.251904 0.249896 Fe
0.000363 0.751904 0.249896 Fe
0.500363 0.751904 0.249896 Fe
