generated by phonopy
   1.0
    10.5159348956513821    0.0000000000000000    0.0000000000000000
     0.0000000000000000   10.5159348956513821    0.0000000000000000
     0.0000000000000000    0.0000000000000000   10.4108540090975072
S Cu Fe
  32   16   16
Direct
  0.1261572340497281  0.1250000000000000  0.1259605359936141
  0.6261572340497210  0.1250000000000000  0.1250000000000000
  0.1261572340497281  0.6250000000000000  0.1250000000000000
  0.6261572340497210  0.6250000000000000  0.1250000000000000
  0.3738427809502625  0.3749999999999999  0.1250000000000000
  0.8738427809502766  0.3749999999999999  0.1250000000000000
  0.3738427809502625  0.8749999999999999  0.1250000000000000
  0.8738427809502766  0.8749999999999999  0.1250000000000000
  0.1250000000000000  0.3738427809502625  0.8750000000000000
  0.6250000000000000  0.3738427809502625  0.8750000000000000
  0.1250000000000000  0.8738427809502766  0.8750000000000000
  0.6250000000000000  0.8738427809502766  0.8750000000000000
  0.3749999999999999  0.1261572340497281  0.8750000000000000
  0.8749999999999999  0.1261572340497281  0.8750000000000000
  0.3749999999999999  0.6261572340497210  0.8750000000000000
  0.8749999999999999  0.6261572340497210  0.8750000000000000
  0.1238427659502719  0.1250000000000000  0.6250000000000000
  0.6238427659502719  0.1250000000000000  0.6250000000000000
  0.1238427659502719  0.6250000000000000  0.6250000000000000
  0.6238427659502719  0.6250000000000000  0.6250000000000000
  0.3761572190497375  0.3749999999999999  0.6250000000000000
  0.8761572190497232  0.3749999999999999  0.6250000000000000
  0.3761572190497375  0.8749999999999999  0.6250000000000000
  0.8761572190497232  0.8749999999999999  0.6250000000000000
  0.3749999999999999  0.1238427659502719  0.3750000000000000
  0.8749999999999999  0.1238427659502719  0.3750000000000000
  0.3749999999999999  0.6238427659502719  0.3750000000000000
  0.8749999999999999  0.6238427659502719  0.3750000000000000
  0.1250000000000000  0.3761572190497375  0.3750000000000000
  0.6250000000000000  0.3761572190497375  0.3750000000000000
  0.1250000000000000  0.8761572190497232  0.3750000000000000
  0.6250000000000000  0.8761572190497232  0.3750000000000000
  0.0000000000000000  0.0000000000000000  0.5000000000000000
  0.5000000000000000  0.0000000000000000  0.5000000000000000
  0.0000000000000000  0.5000000000000000  0.5000000000000000
  0.5000000000000000  0.5000000000000000  0.5000000000000000
  0.2500000000000000  0.0000000000000000  0.2500000000000000
  0.7499999999999999  0.0000000000000000  0.2500000000000000
  0.2500000000000000  0.5000000000000000  0.2500000000000000
  0.7499999999999999  0.5000000000000000  0.2500000000000000
  0.2500000000000000  0.2500000000000000  0.0000000000000000
  0.7499999999999999  0.2500000000000000  0.0000000000000000
  0.2500000000000000  0.7499999999999999  0.0000000000000000
  0.7499999999999999  0.7499999999999999  0.0000000000000000
  0.0000000000000000  0.2500000000000000  0.7500000000000000
  0.5000000000000000  0.2500000000000000  0.7500000000000000
  0.0000000000000000  0.7499999999999999  0.7500000000000000
  0.5000000000000000  0.7499999999999999  0.7500000000000000
  0.0000000000000000  0.0000000000000000  0.0000000000000000
  0.5000000000000000  0.0000000000000000  0.0000000000000000
  0.0000000000000000  0.5000000000000000  0.0000000000000000
  0.5000000000000000  0.5000000000000000  0.0000000000000000
  0.2500000000000000  0.0000000000000000  0.7500000000000000
  0.7499999999999999  0.0000000000000000  0.7500000000000000
  0.2500000000000000  0.5000000000000000  0.7500000000000000
  0.7499999999999999  0.5000000000000000  0.7500000000000000
  0.2500000000000000  0.2500000000000000  0.5000000000000000
  0.7499999999999999  0.2500000000000000  0.5000000000000000
  0.2500000000000000  0.7499999999999999  0.5000000000000000
  0.7499999999999999  0.7499999999999999  0.5000000000000000
  0.0000000000000000  0.2500000000000000  0.2500000000000000
  0.5000000000000000  0.2500000000000000  0.2500000000000000
  0.0000000000000000  0.7499999999999999  0.2500000000000000
  0.5000000000000000  0.7499999999999999  0.2500000000000000
