Fe16 Cu16 S32
1.0
10.507932 0.183305 0.000000
0.183305 10.507932 0.000000
0.000000 0.000000 10.418869
S Cu Fe
32 16 16
direct
0.126122 0.125181 0.123126 S
0.626122 0.125181 0.123126 S
0.126122 0.625181 0.123126 S
0.626122 0.625181 0.123126 S
0.373878 0.374819 0.123126 S
0.873878 0.374819 0.123126 S
0.373878 0.874819 0.123126 S
0.873878 0.874819 0.123126 S
0.124819 0.373878 0.873126 S
0.624819 0.373878 0.873126 S
0.124819 0.873878 0.873126 S
0.624819 0.873878 0.873126 S
0.375181 0.126122 0.873126 S
0.875181 0.126122 0.873126 S
0.375181 0.626122 0.873126 S
0.875181 0.626122 0.873126 S
0.123878 0.124819 0.623126 S
0.623878 0.124819 0.623126 S
0.123878 0.624819 0.623126 S
0.623878 0.624819 0.623126 S
0.376122 0.375181 0.623126 S
0.876122 0.375181 0.623126 S
0.376122 0.875181 0.623126 S
0.876122 0.875181 0.623126 S
0.374819 0.123878 0.373126 S
0.874819 0.123878 0.373126 S
0.374819 0.623878 0.373126 S
0.874819 0.623878 0.373126 S
0.125181 0.376122 0.373126 S
0.625181 0.376122 0.373126 S
0.125181 0.876122 0.373126 S
0.625181 0.876122 0.373126 S
0.000000 0.000000 0.501640 Cu
0.500000 0.000000 0.501640 Cu
0.000000 0.500000 0.501640 Cu
0.500000 0.500000 0.501640 Cu
0.250000 0.000000 0.251640 Cu
0.750000 0.000000 0.251640 Cu
0.250000 0.500000 0.251640 Cu
0.750000 0.500000 0.251640 Cu
0.250000 0.250000 0.001640 Cu
0.750000 0.250000 0.001640 Cu
0.250000 0.750000 0.001640 Cu
0.750000 0.750000 0.001640 Cu
0.000000 0.250000 0.751640 Cu
0.500000 0.250000 0.751640 Cu
0.000000 0.750000 0.751640 Cu
0.500000 0.750000 0.751640 Cu
0.000000 0.000000 0.002109 Fe
0.500000 0.000000 0.002109 Fe
0.000000 0.500000 0.002109 Fe
0.500000 0.500000 0.002109 Fe
0.250000 0.000000 0.752109 Fe
0.750000 0.000000 0.752109 Fe
0.250000 0.500000 0.752109 Fe
0.750000 0.500000 0.752109 Fe
0.250000 0.250000 0.502109 Fe
0.750000 0.250000 0.502109 Fe
0.250000 0.750000 0.502109 Fe
0.750000 0.750000 0.502109 Fe
0.000000 0.250000 0.252109 Fe
0.500000 0.250000 0.252109 Fe
0.000000 0.750000 0.252109 Fe
0.500000 0.750000 0.252109 Fe
