Fe4 Cu4 S8                              
   1.00000000000000     
     5.2387740000000003    0.0000000000000000    0.4583330000000000
     0.0000000000000000    5.2783323614718691    0.0000000000000000
     0.9071460000000000    0.0000000000000000   10.3687280000000008
   S    Cu   Fe
     8     4     4
Direct
  0.2541377257530257  0.2270168033377118  0.1267657930343944
  0.7458622742469885  0.7270168033377118  0.1232342069656056
  0.2500000000000000  0.7364780657491394  0.8750000000000000
  0.7500000000000000  0.2379209417552985  0.8750000000000000
  0.2458622742469814  0.2270168033377118  0.6232342069656056
  0.7541377257530115  0.7270168033377118  0.6267657930343944
  0.7500000000000000  0.2364780657491465  0.3750000000000000
  0.2500000000000000  0.7379209417552985  0.3750000000000000
  0.9899439486649371  0.0176793354082321  0.5001341987583601
  0.5100560513350629  0.0176793354082321  0.2498658012416399
  0.4899439486649300  0.5176793354082321  0.0001341987583601
  0.0100560513350629  0.5176793354082321  0.7498658012416399
  0.9938288827081507  0.0181043575018336  0.0022409952319862
  0.5061711172918493  0.0181043575018336  0.7477590047680138
  0.4938288827081649  0.5181043575018194  0.5022409952319862
  0.0061711172918422  0.5181043575018194  0.2477590047680138
 
  0.00000000E+00  0.00000000E+00  0.00000000E+00
  0.00000000E+00  0.00000000E+00  0.00000000E+00
  0.00000000E+00  0.00000000E+00  0.00000000E+00
  0.00000000E+00  0.00000000E+00  0.00000000E+00
  0.00000000E+00  0.00000000E+00  0.00000000E+00
  0.00000000E+00  0.00000000E+00  0.00000000E+00
  0.00000000E+00  0.00000000E+00  0.00000000E+00
  0.00000000E+00  0.00000000E+00  0.00000000E+00
  0.00000000E+00  0.00000000E+00  0.00000000E+00
  0.00000000E+00  0.00000000E+00  0.00000000E+00
  0.00000000E+00  0.00000000E+00  0.00000000E+00
  0.00000000E+00  0.00000000E+00  0.00000000E+00
  0.00000000E+00  0.00000000E+00  0.00000000E+00
  0.00000000E+00  0.00000000E+00  0.00000000E+00
  0.00000000E+00  0.00000000E+00  0.00000000E+00
  0.00000000E+00  0.00000000E+00  0.00000000E+00
