Fe16 Cu16 S32
1.0
10.490314 0.000000 0.733554
0.000000 10.535930 0.000000
0.726224 0.000000 10.385489
S Cu Fe
32 16 16
direct
0.126623 0.115941 0.126319 S
0.626623 0.115941 0.126319 S
0.126623 0.615941 0.126319 S
0.626623 0.615941 0.126319 S
0.373377 0.365941 0.123681 S
0.873377 0.365941 0.123681 S
0.373377 0.865941 0.123681 S
0.873377 0.865941 0.123681 S
0.125000 0.368960 0.875000 S
0.625000 0.368960 0.875000 S
0.125000 0.868960 0.875000 S
0.625000 0.868960 0.875000 S
0.375000 0.120068 0.875000 S
0.875000 0.120068 0.875000 S
0.375000 0.620068 0.875000 S
0.875000 0.620068 0.875000 S
0.123377 0.115941 0.623681 S
0.623377 0.115941 0.623681 S
0.123377 0.615941 0.623681 S
0.623377 0.615941 0.623681 S
0.376623 0.365941 0.626319 S
0.876623 0.365941 0.626319 S
0.376623 0.865941 0.626319 S
0.876623 0.865941 0.626319 S
0.375000 0.118960 0.375000 S
0.875000 0.118960 0.375000 S
0.375000 0.618960 0.375000 S
0.875000 0.618960 0.375000 S
0.125000 0.370068 0.375000 S
0.625000 0.370068 0.375000 S
0.125000 0.870068 0.375000 S
0.625000 0.870068 0.375000 S
-0.003491 0.007349 0.500032 Cu
0.496509 0.007349 0.500032 Cu
-0.003491 0.507349 0.500032 Cu
0.496509 0.507349 0.500032 Cu
0.253491 0.007349 0.249968 Cu
0.753491 0.007349 0.249968 Cu
0.253491 0.507349 0.249968 Cu
0.753491 0.507349 0.249968 Cu
0.246509 0.257349 0.000032 Cu
0.746509 0.257349 0.000032 Cu
0.246509 0.757349 0.000032 Cu
0.746509 0.757349 0.000032 Cu
0.003491 0.257349 0.749968 Cu
0.503491 0.257349 0.749968 Cu
0.003491 0.757349 0.749968 Cu
0.503491 0.757349 0.749968 Cu
-0.002093 0.007196 0.001291 Fe
0.497907 0.007196 0.001291 Fe
-0.002093 0.507196 0.001291 Fe
0.497907 0.507196 0.001291 Fe
0.252093 0.007196 0.748709 Fe
0.752093 0.007196 0.748709 Fe
0.252093 0.507196 0.748709 Fe
0.752093 0.507196 0.748709 Fe
0.247907 0.257196 0.501291 Fe
0.747907 0.257196 0.501291 Fe
0.247907 0.757196 0.501291 Fe
0.747907 0.757196 0.501291 Fe
0.002093 0.257196 0.248709 Fe
0.502093 0.257196 0.248709 Fe
0.002093 0.757196 0.248709 Fe
0.502093 0.757196 0.248709 Fe
