sm_isp_SD0310437-standardized_unitcell  
   1.00000000000000     
     5.4691370817409348    0.0000000000000000    0.0000000000000000
     0.0000000000000000    5.4691370817409348    0.0000000000000000
     0.0000000000000000    0.0000000000000000    9.8151530875331048
   S    Cu   Fe
     8     4     4
Direct
  0.2512384172152267  0.2500000000000000  0.1250000000000000
  0.7487616127847687  0.7500000000000000  0.1250000000000000
  0.2500000000000000  0.7487616127847687  0.8750000000000000
  0.7500000000000000  0.2512384172152267  0.8750000000000000
  0.2487615827847662  0.2500000000000000  0.6250000000000000
  0.7512383872152313  0.7500000000000000  0.6250000000000000
  0.7500000000000000  0.2487615827847662  0.3750000000000000
  0.2500000000000000  0.7512383872152313  0.3750000000000000
  0.0000000000000000  0.0000000000000000  0.5000000000000000
  0.5000000000000000  0.0000000000000000  0.2500000000000000
  0.5000000000000000  0.5000000000000000  0.0000000000000000
  0.0000000000000000  0.5000000000000000  0.7500000000000000
  0.0000000000000000  0.0000000000000000  0.0000000000000000
  0.5000000000000000  0.0000000000000000  0.7500000000000000
  0.5000000000000000  0.5000000000000000  0.5000000000000000
  0.0000000000000000  0.5000000000000000  0.2500000000000000
 
  0.00000000E+00  0.00000000E+00  0.00000000E+00
  0.00000000E+00  0.00000000E+00  0.00000000E+00
  0.00000000E+00  0.00000000E+00  0.00000000E+00
  0.00000000E+00  0.00000000E+00  0.00000000E+00
  0.00000000E+00  0.00000000E+00  0.00000000E+00
  0.00000000E+00  0.00000000E+00  0.00000000E+00
  0.00000000E+00  0.00000000E+00  0.00000000E+00
  0.00000000E+00  0.00000000E+00  0.00000000E+00
  0.00000000E+00  0.00000000E+00  0.00000000E+00
  0.00000000E+00  0.00000000E+00  0.00000000E+00
  0.00000000E+00  0.00000000E+00  0.00000000E+00
  0.00000000E+00  0.00000000E+00  0.00000000E+00
  0.00000000E+00  0.00000000E+00  0.00000000E+00
  0.00000000E+00  0.00000000E+00  0.00000000E+00
  0.00000000E+00  0.00000000E+00  0.00000000E+00
  0.00000000E+00  0.00000000E+00  0.00000000E+00
