Fe4 Cu4 S8                              
   1.00000000000000     
     5.2447780000000002    0.0000000000000000    0.3208330000000000
     0.0000000000000000    5.2731348243433684    0.0000000000000000
     0.6350020000000000    0.0000000000000000   10.3806100000000008
   S    Cu   Fe
     8     4     4
Direct
  0.2531771768685829  0.2342151372231385  0.1262924704214683
  0.7468228231314100  0.7342151372231314  0.1237075295785317
  0.2500000000000000  0.7387150452245024  0.8750000000000000
  0.7500000000000000  0.2418227704131937  0.8750000000000000
  0.2468228231314171  0.2342151372231385  0.6237075295785388
  0.7531771768685900  0.7342151372231314  0.6262924704214612
  0.7500000000000000  0.2387150452245095  0.3750000000000000
  0.2500000000000000  0.7418227704131866  0.3750000000000000
  0.9938399411811858  0.0127952958539481  0.5000578737727324
  0.5061600588188213  0.0127952958539481  0.2499421262272747
  0.4938399411811858  0.5127952958539481  0.0000578737727253
  0.0061600588188142  0.5127952958539481  0.7499421262272676
  0.9966240573282192  0.0127206591040689  0.0009741817169768
  0.5033759426717808  0.0127206591040689  0.7490258182830232
  0.4966240573282192  0.5127206591040618  0.5009741817169768
  0.0033759426717808  0.5127206591040618  0.2490258182830161
 
  0.00000000E+00  0.00000000E+00  0.00000000E+00
  0.00000000E+00  0.00000000E+00  0.00000000E+00
  0.00000000E+00  0.00000000E+00  0.00000000E+00
  0.00000000E+00  0.00000000E+00  0.00000000E+00
  0.00000000E+00  0.00000000E+00  0.00000000E+00
  0.00000000E+00  0.00000000E+00  0.00000000E+00
  0.00000000E+00  0.00000000E+00  0.00000000E+00
  0.00000000E+00  0.00000000E+00  0.00000000E+00
  0.00000000E+00  0.00000000E+00  0.00000000E+00
  0.00000000E+00  0.00000000E+00  0.00000000E+00
  0.00000000E+00  0.00000000E+00  0.00000000E+00
  0.00000000E+00  0.00000000E+00  0.00000000E+00
  0.00000000E+00  0.00000000E+00  0.00000000E+00
  0.00000000E+00  0.00000000E+00  0.00000000E+00
  0.00000000E+00  0.00000000E+00  0.00000000E+00
  0.00000000E+00  0.00000000E+00  0.00000000E+00
