Fe16 Cu16 S32
1.0
10.511133 0.109983 0.000000
0.109983 10.511133 0.000000
0.000000 0.000000 10.416948
S Cu Fe
32 16 16
direct
0.126150 0.125133 0.123832 S
0.626150 0.125133 0.123832 S
0.126150 0.625133 0.123832 S
0.626150 0.625133 0.123832 S
0.373850 0.374867 0.123832 S
0.873850 0.374867 0.123832 S
0.373850 0.874867 0.123832 S
0.873850 0.874867 0.123832 S
0.124867 0.373850 0.873832 S
0.624867 0.373850 0.873832 S
0.124867 0.873850 0.873832 S
0.624867 0.873850 0.873832 S
0.375133 0.126150 0.873832 S
0.875133 0.126150 0.873832 S
0.375133 0.626150 0.873832 S
0.875133 0.626150 0.873832 S
0.123850 0.124867 0.623832 S
0.623850 0.124867 0.623832 S
0.123850 0.624867 0.623832 S
0.623850 0.624867 0.623832 S
0.376150 0.375133 0.623832 S
0.876150 0.375133 0.623832 S
0.376150 0.875133 0.623832 S
0.876150 0.875133 0.623832 S
0.374867 0.123850 0.373832 S
0.874867 0.123850 0.373832 S
0.374867 0.623850 0.373832 S
0.874867 0.623850 0.373832 S
0.125133 0.376150 0.373832 S
0.625133 0.376150 0.373832 S
0.125133 0.876150 0.373832 S
0.625133 0.876150 0.373832 S
0.000000 0.000000 0.500995 Cu
0.500000 0.000000 0.500995 Cu
0.000000 0.500000 0.500995 Cu
0.500000 0.500000 0.500995 Cu
0.250000 0.000000 0.250995 Cu
0.750000 0.000000 0.250995 Cu
0.250000 0.500000 0.250995 Cu
0.750000 0.500000 0.250995 Cu
0.250000 0.250000 0.000995 Cu
0.750000 0.250000 0.000995 Cu
0.250000 0.750000 0.000995 Cu
0.750000 0.750000 0.000995 Cu
0.000000 0.250000 0.750995 Cu
0.500000 0.250000 0.750995 Cu
0.000000 0.750000 0.750995 Cu
0.500000 0.750000 0.750995 Cu
0.000000 0.000000 0.001341 Fe
0.500000 0.000000 0.001341 Fe
0.000000 0.500000 0.001341 Fe
0.500000 0.500000 0.001341 Fe
0.250000 0.000000 0.751341 Fe
0.750000 0.000000 0.751341 Fe
0.250000 0.500000 0.751341 Fe
0.750000 0.500000 0.751341 Fe
0.250000 0.250000 0.501341 Fe
0.750000 0.250000 0.501341 Fe
0.250000 0.750000 0.501341 Fe
0.750000 0.750000 0.501341 Fe
0.000000 0.250000 0.251341 Fe
0.500000 0.250000 0.251341 Fe
0.000000 0.750000 0.251341 Fe
0.500000 0.750000 0.251341 Fe
