Fe16 Cu16 S32
1.0
10.515135 0.018330 0.000000
0.018330 10.515135 0.000000
0.000000 0.000000 10.411851
S Cu Fe
32 16 16
direct
0.126157 0.125022 0.124805 S
0.626157 0.125022 0.124805 S
0.126157 0.625022 0.124805 S
0.626157 0.625022 0.124805 S
0.373843 0.374978 0.124805 S
0.873843 0.374978 0.124805 S
0.373843 0.874978 0.124805 S
0.873843 0.874978 0.124805 S
0.124978 0.373843 0.874805 S
0.624978 0.373843 0.874805 S
0.124978 0.873843 0.874805 S
0.624978 0.873843 0.874805 S
0.375022 0.126157 0.874805 S
0.875022 0.126157 0.874805 S
0.375022 0.626157 0.874805 S
0.875022 0.626157 0.874805 S
0.123843 0.124978 0.624805 S
0.623843 0.124978 0.624805 S
0.123843 0.624978 0.624805 S
0.623843 0.624978 0.624805 S
0.376157 0.375022 0.624805 S
0.876157 0.375022 0.624805 S
0.376157 0.875022 0.624805 S
0.876157 0.875022 0.624805 S
0.374978 0.123843 0.374805 S
0.874978 0.123843 0.374805 S
0.374978 0.623843 0.374805 S
0.874978 0.623843 0.374805 S
0.125022 0.376157 0.374805 S
0.625022 0.376157 0.374805 S
0.125022 0.876157 0.374805 S
0.625022 0.876157 0.374805 S
0.000000 0.000000 0.500166 Cu
0.500000 0.000000 0.500166 Cu
0.000000 0.500000 0.500166 Cu
0.500000 0.500000 0.500166 Cu
0.250000 0.000000 0.250166 Cu
0.750000 0.000000 0.250166 Cu
0.250000 0.500000 0.250166 Cu
0.750000 0.500000 0.250166 Cu
0.250000 0.250000 0.000166 Cu
0.750000 0.250000 0.000166 Cu
0.250000 0.750000 0.000166 Cu
0.750000 0.750000 0.000166 Cu
0.000000 0.250000 0.750166 Cu
0.500000 0.250000 0.750166 Cu
0.000000 0.750000 0.750166 Cu
0.500000 0.750000 0.750166 Cu
0.000000 0.000000 0.000223 Fe
0.500000 0.000000 0.000223 Fe
0.000000 0.500000 0.000223 Fe
0.500000 0.500000 0.000223 Fe
0.250000 0.000000 0.750223 Fe
0.750000 0.000000 0.750223 Fe
0.250000 0.500000 0.750223 Fe
0.750000 0.500000 0.750223 Fe
0.250000 0.250000 0.500223 Fe
0.750000 0.250000 0.500223 Fe
0.250000 0.750000 0.500223 Fe
0.750000 0.750000 0.500223 Fe
0.000000 0.250000 0.250223 Fe
0.500000 0.250000 0.250223 Fe
0.000000 0.750000 0.250223 Fe
0.500000 0.750000 0.250223 Fe
