Fe16 Cu16 S32
1.0
10.514329 0.000000 0.183528
0.000000 10.517052 0.000000
0.181694 0.000000 10.409264
S Cu Fe
32 16 16
direct
0.126178 0.122836 0.125350 S
0.626178 0.122836 0.125350 S
0.126178 0.622836 0.125350 S
0.626178 0.622836 0.125350 S
0.373822 0.372836 0.124650 S
0.873822 0.372836 0.124650 S
0.373822 0.872836 0.124650 S
0.873822 0.872836 0.124650 S
0.125000 0.372320 0.875000 S
0.625000 0.372320 0.875000 S
0.125000 0.872320 0.875000 S
0.625000 0.872320 0.875000 S
0.375000 0.124569 0.875000 S
0.875000 0.124569 0.875000 S
0.375000 0.624569 0.875000 S
0.875000 0.624569 0.875000 S
0.123822 0.122836 0.624650 S
0.623822 0.122836 0.624650 S
0.123822 0.622836 0.624650 S
0.623822 0.622836 0.624650 S
0.376178 0.372836 0.625350 S
0.876178 0.372836 0.625350 S
0.376178 0.872836 0.625350 S
0.876178 0.872836 0.625350 S
0.375000 0.122320 0.375000 S
0.875000 0.122320 0.375000 S
0.375000 0.622320 0.375000 S
0.875000 0.622320 0.375000 S
0.125000 0.374569 0.375000 S
0.625000 0.374569 0.375000 S
0.125000 0.874569 0.375000 S
0.625000 0.874569 0.375000 S
-0.000631 0.001899 0.500003 Cu
0.499369 0.001899 0.500003 Cu
-0.000631 0.501899 0.500003 Cu
0.499369 0.501899 0.500003 Cu
0.250631 0.001899 0.249997 Cu
0.750631 0.001899 0.249997 Cu
0.250631 0.501899 0.249997 Cu
0.750631 0.501899 0.249997 Cu
0.249369 0.251899 0.000003 Cu
0.749369 0.251899 0.000003 Cu
0.249369 0.751899 0.000003 Cu
0.749369 0.751899 0.000003 Cu
0.000631 0.251899 0.749997 Cu
0.500631 0.251899 0.749997 Cu
0.000631 0.751899 0.749997 Cu
0.500631 0.751899 0.749997 Cu
-0.000313 0.001821 0.000057 Fe
0.499687 0.001821 0.000057 Fe
-0.000313 0.501821 0.000057 Fe
0.499687 0.501821 0.000057 Fe
0.250313 0.001821 0.749943 Fe
0.750313 0.001821 0.749943 Fe
0.250313 0.501821 0.749943 Fe
0.750313 0.501821 0.749943 Fe
0.249687 0.251821 0.500057 Fe
0.749687 0.251821 0.500057 Fe
0.249687 0.751821 0.500057 Fe
0.749687 0.751821 0.500057 Fe
0.000313 0.251821 0.249943 Fe
0.500313 0.251821 0.249943 Fe
0.000313 0.751821 0.249943 Fe
0.500313 0.751821 0.249943 Fe
