Fe16 Cu16 S32                           
   1.00000000000000     
    10.5119330000000009    0.0916520000000000    0.0000000000000000
     0.0916520000000000   10.5119330000000009    0.0000000000000000
     0.0000000000000000    0.0000000000000000   10.4161950113337518
   S    Cu   Fe
    32    16    16
Direct
  0.1261588713700519  0.1251019728723435  0.1240231588904166
  0.6261588713700519  0.1251019728723435  0.1240231588904166
  0.1261588713700519  0.6251019728723435  0.1240231588904166
  0.6261588713700519  0.6251019728723435  0.1240231588904166
  0.3738411286299481  0.3748980271276565  0.1240231588904166
  0.8738411286299481  0.3748980271276565  0.1240231588904166
  0.3738411286299481  0.8748980271276565  0.1240231588904166
  0.8738411286299481  0.8748980271276565  0.1240231588904166
  0.1248980271276565  0.3738411286299481  0.8740231588904166
  0.6248980271276565  0.3738411286299481  0.8740231588904166
  0.1248980271276565  0.8738411286299481  0.8740231588904166
  0.6248980271276565  0.8738411286299481  0.8740231588904166
  0.3751019728723435  0.1261588713700519  0.8740231588904166
  0.8751019728723435  0.1261588713700519  0.8740231588904166
  0.3751019728723435  0.6261588713700519  0.8740231588904166
  0.8751019728723435  0.6261588713700519  0.8740231588904166
  0.1238411286299481  0.1248980271276565  0.6240231588904166
  0.6238411286299481  0.1248980271276565  0.6240231588904166
  0.1238411286299481  0.6248980271276565  0.6240231588904166
  0.6238411286299481  0.6248980271276565  0.6240231588904166
  0.3761588713700519  0.3751019728723435  0.6240231588904166
  0.8761588713700519  0.3751019728723435  0.6240231588904166
  0.3761588713700519  0.8751019728723435  0.6240231588904166
  0.8761588713700519  0.8751019728723435  0.6240231588904166
  0.3748980271276565  0.1238411286299481  0.3740231588904166
  0.8748980271276565  0.1238411286299481  0.3740231588904166
  0.3748980271276565  0.6238411286299481  0.3740231588904166
  0.8748980271276565  0.6238411286299481  0.3740231588904166
  0.1251019728723435  0.3761588713700519  0.3740231588904166
  0.6251019728723435  0.3761588713700519  0.3740231588904166
  0.1251019728723435  0.8761588713700519  0.3740231588904166
  0.6251019728723435  0.8761588713700519  0.3740231588904166
  0.0000000000000000  0.0000000000000000  0.5008447193053911
  0.5000000000000000  0.0000000000000000  0.5008447193053911
  0.0000000000000000  0.5000000000000000  0.5008447193053911
  0.5000000000000000  0.5000000000000000  0.5008447193053911
  0.2500000000000000  0.0000000000000000  0.2508447193053911
  0.7500000000000000  0.0000000000000000  0.2508447193053911
  0.2500000000000000  0.5000000000000000  0.2508447193053911
  0.7500000000000000  0.5000000000000000  0.2508447193053911
  0.2500000000000000  0.2500000000000000  0.0008447193053911
  0.7500000000000000  0.2500000000000000  0.0008447193053911
  0.2500000000000000  0.7500000000000000  0.0008447193053911
  0.7500000000000000  0.7500000000000000  0.0008447193053911
  0.0000000000000000  0.2500000000000000  0.7508447193053911
  0.5000000000000000  0.2500000000000000  0.7508447193053911
  0.0000000000000000  0.7500000000000000  0.7508447193053911
  0.5000000000000000  0.7500000000000000  0.7508447193053911
  0.0000000000000000  0.0000000000000000  0.0011089629137828
  0.5000000000000000  0.0000000000000000  0.0011089629137828
  0.0000000000000000  0.5000000000000000  0.0011089629137828
  0.5000000000000000  0.5000000000000000  0.0011089629137828
  0.2500000000000000  0.0000000000000000  0.7511089629137828
  0.7500000000000000  0.0000000000000000  0.7511089629137828
  0.2500000000000000  0.5000000000000000  0.7511089629137828
  0.7500000000000000  0.5000000000000000  0.7511089629137828
  0.2500000000000000  0.2500000000000000  0.5011089629137828
  0.7500000000000000  0.2500000000000000  0.5011089629137828
  0.2500000000000000  0.7500000000000000  0.5011089629137828
  0.7500000000000000  0.7500000000000000  0.5011089629137828
  0.0000000000000000  0.2500000000000000  0.2511089629137828
  0.5000000000000000  0.2500000000000000  0.2511089629137828
  0.0000000000000000  0.7500000000000000  0.2511089629137828
  0.5000000000000000  0.7500000000000000  0.2511089629137828
 
  0.00000000E+00  0.00000000E+00  0.00000000E+00
  0.00000000E+00  0.00000000E+00  0.00000000E+00
  0.00000000E+00  0.00000000E+00  0.00000000E+00
  0.00000000E+00  0.00000000E+00  0.00000000E+00
  0.00000000E+00  0.00000000E+00  0.00000000E+00
  0.00000000E+00  0.00000000E+00  0.00000000E+00
  0.00000000E+00  0.00000000E+00  0.00000000E+00
  0.00000000E+00  0.00000000E+00  0.00000000E+00
  0.00000000E+00  0.00000000E+00  0.00000000E+00
  0.00000000E+00  0.00000000E+00  0.00000000E+00
  0.00000000E+00  0.00000000E+00  0.00000000E+00
  0.00000000E+00  0.00000000E+00  0.00000000E+00
  0.00000000E+00  0.00000000E+00  0.00000000E+00
  0.00000000E+00  0.00000000E+00  0.00000000E+00
  0.00000000E+00  0.00000000E+00  0.00000000E+00
  0.00000000E+00  0.00000000E+00  0.00000000E+00
  0.00000000E+00  0.00000000E+00  0.00000000E+00
  0.00000000E+00  0.00000000E+00  0.00000000E+00
  0.00000000E+00  0.00000000E+00  0.00000000E+00
  0.00000000E+00  0.00000000E+00  0.00000000E+00
  0.00000000E+00  0.00000000E+00  0.00000000E+00
  0.00000000E+00  0.00000000E+00  0.00000000E+00
  0.00000000E+00  0.00000000E+00  0.00000000E+00
  0.00000000E+00  0.00000000E+00  0.00000000E+00
  0.00000000E+00  0.00000000E+00  0.00000000E+00
  0.00000000E+00  0.00000000E+00  0.00000000E+00
  0.00000000E+00  0.00000000E+00  0.00000000E+00
  0.00000000E+00  0.00000000E+00  0.00000000E+00
  0.00000000E+00  0.00000000E+00  0.00000000E+00
  0.00000000E+00  0.00000000E+00  0.00000000E+00
  0.00000000E+00  0.00000000E+00  0.00000000E+00
  0.00000000E+00  0.00000000E+00  0.00000000E+00
  0.00000000E+00  0.00000000E+00  0.00000000E+00
  0.00000000E+00  0.00000000E+00  0.00000000E+00
  0.00000000E+00  0.00000000E+00  0.00000000E+00
  0.00000000E+00  0.00000000E+00  0.00000000E+00
  0.00000000E+00  0.00000000E+00  0.00000000E+00
  0.00000000E+00  0.00000000E+00  0.00000000E+00
  0.00000000E+00  0.00000000E+00  0.00000000E+00
  0.00000000E+00  0.00000000E+00  0.00000000E+00
  0.00000000E+00  0.00000000E+00  0.00000000E+00
  0.00000000E+00  0.00000000E+00  0.00000000E+00
  0.00000000E+00  0.00000000E+00  0.00000000E+00
  0.00000000E+00  0.00000000E+00  0.00000000E+00
  0.00000000E+00  0.00000000E+00  0.00000000E+00
  0.00000000E+00  0.00000000E+00  0.00000000E+00
  0.00000000E+00  0.00000000E+00  0.00000000E+00
  0.00000000E+00  0.00000000E+00  0.00000000E+00
  0.00000000E+00  0.00000000E+00  0.00000000E+00
  0.00000000E+00  0.00000000E+00  0.00000000E+00
  0.00000000E+00  0.00000000E+00  0.00000000E+00
  0.00000000E+00  0.00000000E+00  0.00000000E+00
  0.00000000E+00  0.00000000E+00  0.00000000E+00
  0.00000000E+00  0.00000000E+00  0.00000000E+00
  0.00000000E+00  0.00000000E+00  0.00000000E+00
  0.00000000E+00  0.00000000E+00  0.00000000E+00
  0.00000000E+00  0.00000000E+00  0.00000000E+00
  0.00000000E+00  0.00000000E+00  0.00000000E+00
  0.00000000E+00  0.00000000E+00  0.00000000E+00
  0.00000000E+00  0.00000000E+00  0.00000000E+00
  0.00000000E+00  0.00000000E+00  0.00000000E+00
  0.00000000E+00  0.00000000E+00  0.00000000E+00
  0.00000000E+00  0.00000000E+00  0.00000000E+00
  0.00000000E+00  0.00000000E+00  0.00000000E+00
