sm_isp_SD0310437-standardized_unitcell  
   1.00000000000000     
     5.3639613686305321    0.0000000000000000    0.0000000000000000
     0.0000000000000000    5.1161149551291158    0.0000000000000000
     0.0000000000000000    0.0000000000000000   10.6165014391929358
   S    Cu   Fe
     8     4     4
Direct
  0.2523191354927619  0.2500000000000000  0.1250000000000000
  0.7476808945072335  0.7500000000000000  0.1250000000000000
  0.2500000000000000  0.7477979866016327  0.8750000000000000
  0.7500000000000000  0.2522020433983627  0.8750000000000000
  0.2476808645072310  0.2500000000000000  0.6250000000000000
  0.7523191054927665  0.7500000000000000  0.6250000000000000
  0.7500000000000000  0.2477979566016302  0.3750000000000000
  0.2500000000000000  0.7522020133983673  0.3750000000000000
  0.0000000000000000  0.0000000000000000  0.4997392670117620
  0.5000000000000000  0.0000000000000000  0.2502607329882380
  0.5000000000000000  0.5000000000000000  0.9997392670117691
  0.0000000000000000  0.5000000000000000  0.7502607329882309
  0.0000000000000000  0.0000000000000000  0.9999317349794339
  0.5000000000000000  0.0000000000000000  0.7500682650205661
  0.5000000000000000  0.5000000000000000  0.4999317349794410
  0.0000000000000000  0.5000000000000000  0.2500682650205590
 
  0.00000000E+00  0.00000000E+00  0.00000000E+00
  0.00000000E+00  0.00000000E+00  0.00000000E+00
  0.00000000E+00  0.00000000E+00  0.00000000E+00
  0.00000000E+00  0.00000000E+00  0.00000000E+00
  0.00000000E+00  0.00000000E+00  0.00000000E+00
  0.00000000E+00  0.00000000E+00  0.00000000E+00
  0.00000000E+00  0.00000000E+00  0.00000000E+00
  0.00000000E+00  0.00000000E+00  0.00000000E+00
  0.00000000E+00  0.00000000E+00  0.00000000E+00
  0.00000000E+00  0.00000000E+00  0.00000000E+00
  0.00000000E+00  0.00000000E+00  0.00000000E+00
  0.00000000E+00  0.00000000E+00  0.00000000E+00
  0.00000000E+00  0.00000000E+00  0.00000000E+00
  0.00000000E+00  0.00000000E+00  0.00000000E+00
  0.00000000E+00  0.00000000E+00  0.00000000E+00
  0.00000000E+00  0.00000000E+00  0.00000000E+00
