Fe16 Cu16 S32
1.0
10.510333 0.128313 0.000000
0.128313 10.510333 0.000000
0.000000 0.000000 10.417830
S Cu Fe
32 16 16
direct
0.126154 0.125151 0.123637 S
0.626154 0.125151 0.123637 S
0.126154 0.625151 0.123637 S
0.626154 0.625151 0.123637 S
0.373846 0.374849 0.123637 S
0.873846 0.374849 0.123637 S
0.373846 0.874849 0.123637 S
0.873846 0.874849 0.123637 S
0.124849 0.373846 0.873637 S
0.624849 0.373846 0.873637 S
0.124849 0.873846 0.873637 S
0.624849 0.873846 0.873637 S
0.375151 0.126154 0.873637 S
0.875151 0.126154 0.873637 S
0.375151 0.626154 0.873637 S
0.875151 0.626154 0.873637 S
0.123846 0.124849 0.623637 S
0.623846 0.124849 0.623637 S
0.123846 0.624849 0.623637 S
0.623846 0.624849 0.623637 S
0.376154 0.375151 0.623637 S
0.876154 0.375151 0.623637 S
0.376154 0.875151 0.623637 S
0.876154 0.875151 0.623637 S
0.374849 0.123846 0.373637 S
0.874849 0.123846 0.373637 S
0.374849 0.623846 0.373637 S
0.874849 0.623846 0.373637 S
0.125151 0.376154 0.373637 S
0.625151 0.376154 0.373637 S
0.125151 0.876154 0.373637 S
0.625151 0.876154 0.373637 S
0.000000 0.000000 0.501163 Cu
0.500000 0.000000 0.501163 Cu
0.000000 0.500000 0.501163 Cu
0.500000 0.500000 0.501163 Cu
0.250000 0.000000 0.251163 Cu
0.750000 0.000000 0.251163 Cu
0.250000 0.500000 0.251163 Cu
0.750000 0.500000 0.251163 Cu
0.250000 0.250000 0.001163 Cu
0.750000 0.250000 0.001163 Cu
0.250000 0.750000 0.001163 Cu
0.750000 0.750000 0.001163 Cu
0.000000 0.250000 0.751163 Cu
0.500000 0.250000 0.751163 Cu
0.000000 0.750000 0.751163 Cu
0.500000 0.750000 0.751163 Cu
0.000000 0.000000 0.001564 Fe
0.500000 0.000000 0.001564 Fe
0.000000 0.500000 0.001564 Fe
0.500000 0.500000 0.001564 Fe
0.250000 0.000000 0.751564 Fe
0.750000 0.000000 0.751564 Fe
0.250000 0.500000 0.751564 Fe
0.750000 0.500000 0.751564 Fe
0.250000 0.250000 0.501564 Fe
0.750000 0.250000 0.501564 Fe
0.250000 0.750000 0.501564 Fe
0.750000 0.750000 0.501564 Fe
0.000000 0.250000 0.251564 Fe
0.500000 0.250000 0.251564 Fe
0.000000 0.750000 0.251564 Fe
0.500000 0.750000 0.251564 Fe
