Fe16 Cu16 S32
1.0
10.493240 0.000000 0.577549
0.000000 10.534063 0.000000
0.571778 0.000000 10.388386
S Cu Fe
32 16 16
direct
0.126598 0.117774 0.126032 S
0.626598 0.117774 0.126032 S
0.126598 0.617774 0.126032 S
0.626598 0.617774 0.126032 S
0.373402 0.367774 0.123968 S
0.873402 0.367774 0.123968 S
0.373402 0.867774 0.123968 S
0.873402 0.867774 0.123968 S
0.125000 0.370228 0.875000 S
0.625000 0.370228 0.875000 S
0.125000 0.870228 0.875000 S
0.625000 0.870228 0.875000 S
0.375000 0.121452 0.875000 S
0.875000 0.121452 0.875000 S
0.375000 0.621452 0.875000 S
0.875000 0.621452 0.875000 S
0.123402 0.117774 0.623968 S
0.623402 0.117774 0.623968 S
0.123402 0.617774 0.623968 S
0.623402 0.617774 0.623968 S
0.376598 0.367774 0.626032 S
0.876598 0.367774 0.626032 S
0.376598 0.867774 0.626032 S
0.876598 0.867774 0.626032 S
0.375000 0.120228 0.375000 S
0.875000 0.120228 0.375000 S
0.375000 0.620228 0.375000 S
0.875000 0.620228 0.375000 S
0.125000 0.371452 0.375000 S
0.625000 0.371452 0.375000 S
0.125000 0.871452 0.375000 S
0.625000 0.871452 0.375000 S
-0.002951 0.005719 0.500026 Cu
0.497049 0.005719 0.500026 Cu
-0.002951 0.505719 0.500026 Cu
0.497049 0.505719 0.500026 Cu
0.252951 0.005719 0.249974 Cu
0.752951 0.005719 0.249974 Cu
0.252951 0.505719 0.249974 Cu
0.752951 0.505719 0.249974 Cu
0.247049 0.255719 0.000026 Cu
0.747049 0.255719 0.000026 Cu
0.247049 0.755719 0.000026 Cu
0.747049 0.755719 0.000026 Cu
0.002951 0.255719 0.749974 Cu
0.502951 0.255719 0.749974 Cu
0.002951 0.755719 0.749974 Cu
0.502951 0.755719 0.749974 Cu
-0.001843 0.005667 0.001231 Fe
0.498157 0.005667 0.001231 Fe
-0.001843 0.505667 0.001231 Fe
0.498157 0.505667 0.001231 Fe
0.251843 0.005667 0.748769 Fe
0.751843 0.005667 0.748769 Fe
0.251843 0.505667 0.748769 Fe
0.751843 0.505667 0.748769 Fe
0.248157 0.255667 0.501231 Fe
0.748157 0.255667 0.501231 Fe
0.248157 0.755667 0.501231 Fe
0.748157 0.755667 0.501231 Fe
0.001843 0.255667 0.248769 Fe
0.501843 0.255667 0.248769 Fe
0.001843 0.755667 0.248769 Fe
0.501843 0.755667 0.248769 Fe
