Fe16 Cu16 S32                           
   1.00000000000000     
    10.4999280000000006    0.3666100000000000    0.0000000000000000
     0.3666100000000000   10.4999280000000006    0.0000000000000000
     0.0000000000000000    0.0000000000000000   10.4304181974682937
   S    Cu   Fe
    32    16    16
Direct
  0.1261258689199281  0.1254012925910502  0.1211147980835250
  0.6261258689199352  0.1254012925910502  0.1211147980835250
  0.1261258689199281  0.6254012925910430  0.1211147980835250
  0.6261258689199352  0.6254012925910430  0.1211147980835250
  0.3738741310800648  0.3745987074089427  0.1211147980835250
  0.8738741310800648  0.3745987074089427  0.1211147980835250
  0.3738741310800648  0.8745987074089570  0.1211147980835250
  0.8738741310800648  0.8745987074089570  0.1211147980835250
  0.1245987074089498  0.3738741310800648  0.8711147980835250
  0.6245987074089570  0.3738741310800648  0.8711147980835250
  0.1245987074089498  0.8738741310800648  0.8711147980835250
  0.6245987074089570  0.8738741310800648  0.8711147980835250
  0.3754012925910573  0.1261258689199281  0.8711147980835250
  0.8754012925910430  0.1261258689199281  0.8711147980835250
  0.3754012925910573  0.6261258689199352  0.8711147980835250
  0.8754012925910430  0.6261258689199352  0.8711147980835250
  0.1238741310800719  0.1245987074089498  0.6211147980835250
  0.6238741310800648  0.1245987074089498  0.6211147980835250
  0.1238741310800719  0.6245987074089570  0.6211147980835250
  0.6238741310800648  0.6245987074089570  0.6211147980835250
  0.3761258689199352  0.3754012925910573  0.6211147980835250
  0.8761258689199352  0.3754012925910573  0.6211147980835250
  0.3761258689199352  0.8754012925910430  0.6211147980835250
  0.8761258689199352  0.8754012925910430  0.6211147980835250
  0.3745987074089427  0.1238741310800719  0.3711147980835321
  0.8745987074089570  0.1238741310800719  0.3711147980835321
  0.3745987074089427  0.6238741310800648  0.3711147980835321
  0.8745987074089570  0.6238741310800648  0.3711147980835321
  0.1254012925910502  0.3761258689199352  0.3711147980835321
  0.6254012925910430  0.3761258689199352  0.3711147980835321
  0.1254012925910502  0.8761258689199352  0.3711147980835321
  0.6254012925910430  0.8761258689199352  0.3711147980835321
  0.0000000000000000  0.0000000000000000  0.5033787949895228
  0.5000000000000000  0.0000000000000000  0.5033787949895228
  0.0000000000000000  0.5000000000000000  0.5033787949895228
  0.5000000000000000  0.5000000000000000  0.5033787949895228
  0.2500000000000000  0.0000000000000000  0.2533787949895157
  0.7500000000000000  0.0000000000000000  0.2533787949895157
  0.2500000000000000  0.5000000000000000  0.2533787949895157
  0.7500000000000000  0.5000000000000000  0.2533787949895157
  0.2500000000000000  0.2500000000000000  0.0033787949895157
  0.7500000000000000  0.2500000000000000  0.0033787949895157
  0.2500000000000000  0.7500000000000000  0.0033787949895157
  0.7500000000000000  0.7500000000000000  0.0033787949895157
  0.0000000000000000  0.2500000000000000  0.7533787949895228
  0.5000000000000000  0.2500000000000000  0.7533787949895228
  0.0000000000000000  0.7500000000000000  0.7533787949895228
  0.5000000000000000  0.7500000000000000  0.7533787949895228
  0.0000000000000000  0.0000000000000000  0.0043916088434202
  0.5000000000000000  0.0000000000000000  0.0043916088434202
  0.0000000000000000  0.5000000000000000  0.0043916088434202
  0.5000000000000000  0.5000000000000000  0.0043916088434202
  0.2500000000000000  0.0000000000000000  0.7543916088434273
  0.7500000000000000  0.0000000000000000  0.7543916088434273
  0.2500000000000000  0.5000000000000000  0.7543916088434273
  0.7500000000000000  0.5000000000000000  0.7543916088434273
  0.2500000000000000  0.2500000000000000  0.5043916088434273
  0.7500000000000000  0.2500000000000000  0.5043916088434273
  0.2500000000000000  0.7500000000000000  0.5043916088434273
  0.7500000000000000  0.7500000000000000  0.5043916088434273
  0.0000000000000000  0.2500000000000000  0.2543916088434273
  0.5000000000000000  0.2500000000000000  0.2543916088434273
  0.0000000000000000  0.7500000000000000  0.2543916088434273
  0.5000000000000000  0.7500000000000000  0.2543916088434273
 
  0.00000000E+00  0.00000000E+00  0.00000000E+00
  0.00000000E+00  0.00000000E+00  0.00000000E+00
  0.00000000E+00  0.00000000E+00  0.00000000E+00
  0.00000000E+00  0.00000000E+00  0.00000000E+00
  0.00000000E+00  0.00000000E+00  0.00000000E+00
  0.00000000E+00  0.00000000E+00  0.00000000E+00
  0.00000000E+00  0.00000000E+00  0.00000000E+00
  0.00000000E+00  0.00000000E+00  0.00000000E+00
  0.00000000E+00  0.00000000E+00  0.00000000E+00
  0.00000000E+00  0.00000000E+00  0.00000000E+00
  0.00000000E+00  0.00000000E+00  0.00000000E+00
  0.00000000E+00  0.00000000E+00  0.00000000E+00
  0.00000000E+00  0.00000000E+00  0.00000000E+00
  0.00000000E+00  0.00000000E+00  0.00000000E+00
  0.00000000E+00  0.00000000E+00  0.00000000E+00
  0.00000000E+00  0.00000000E+00  0.00000000E+00
  0.00000000E+00  0.00000000E+00  0.00000000E+00
  0.00000000E+00  0.00000000E+00  0.00000000E+00
  0.00000000E+00  0.00000000E+00  0.00000000E+00
  0.00000000E+00  0.00000000E+00  0.00000000E+00
  0.00000000E+00  0.00000000E+00  0.00000000E+00
  0.00000000E+00  0.00000000E+00  0.00000000E+00
  0.00000000E+00  0.00000000E+00  0.00000000E+00
  0.00000000E+00  0.00000000E+00  0.00000000E+00
  0.00000000E+00  0.00000000E+00  0.00000000E+00
  0.00000000E+00  0.00000000E+00  0.00000000E+00
  0.00000000E+00  0.00000000E+00  0.00000000E+00
  0.00000000E+00  0.00000000E+00  0.00000000E+00
  0.00000000E+00  0.00000000E+00  0.00000000E+00
  0.00000000E+00  0.00000000E+00  0.00000000E+00
  0.00000000E+00  0.00000000E+00  0.00000000E+00
  0.00000000E+00  0.00000000E+00  0.00000000E+00
  0.00000000E+00  0.00000000E+00  0.00000000E+00
  0.00000000E+00  0.00000000E+00  0.00000000E+00
  0.00000000E+00  0.00000000E+00  0.00000000E+00
  0.00000000E+00  0.00000000E+00  0.00000000E+00
  0.00000000E+00  0.00000000E+00  0.00000000E+00
  0.00000000E+00  0.00000000E+00  0.00000000E+00
  0.00000000E+00  0.00000000E+00  0.00000000E+00
  0.00000000E+00  0.00000000E+00  0.00000000E+00
  0.00000000E+00  0.00000000E+00  0.00000000E+00
  0.00000000E+00  0.00000000E+00  0.00000000E+00
  0.00000000E+00  0.00000000E+00  0.00000000E+00
  0.00000000E+00  0.00000000E+00  0.00000000E+00
  0.00000000E+00  0.00000000E+00  0.00000000E+00
  0.00000000E+00  0.00000000E+00  0.00000000E+00
  0.00000000E+00  0.00000000E+00  0.00000000E+00
  0.00000000E+00  0.00000000E+00  0.00000000E+00
  0.00000000E+00  0.00000000E+00  0.00000000E+00
  0.00000000E+00  0.00000000E+00  0.00000000E+00
  0.00000000E+00  0.00000000E+00  0.00000000E+00
  0.00000000E+00  0.00000000E+00  0.00000000E+00
  0.00000000E+00  0.00000000E+00  0.00000000E+00
  0.00000000E+00  0.00000000E+00  0.00000000E+00
  0.00000000E+00  0.00000000E+00  0.00000000E+00
  0.00000000E+00  0.00000000E+00  0.00000000E+00
  0.00000000E+00  0.00000000E+00  0.00000000E+00
  0.00000000E+00  0.00000000E+00  0.00000000E+00
  0.00000000E+00  0.00000000E+00  0.00000000E+00
  0.00000000E+00  0.00000000E+00  0.00000000E+00
  0.00000000E+00  0.00000000E+00  0.00000000E+00
  0.00000000E+00  0.00000000E+00  0.00000000E+00
  0.00000000E+00  0.00000000E+00  0.00000000E+00
  0.00000000E+00  0.00000000E+00  0.00000000E+00
