Fe16 Cu16 S32
1.0
10.513048 0.000000 0.220220
0.000000 10.518224 0.000000
0.218019 0.000000 10.407996
S Cu Fe
32 16 16
direct
0.126203 0.122373 0.125411 S
0.626203 0.122373 0.125411 S
0.126203 0.622373 0.125411 S
0.626203 0.622373 0.125411 S
0.373797 0.372373 0.124589 S
0.873797 0.372373 0.124589 S
0.373797 0.872373 0.124589 S
0.873797 0.872373 0.124589 S
0.125000 0.372072 0.875000 S
0.625000 0.372072 0.875000 S
0.125000 0.872072 0.875000 S
0.625000 0.872072 0.875000 S
0.375000 0.124252 0.875000 S
0.875000 0.124252 0.875000 S
0.375000 0.624252 0.875000 S
0.875000 0.624252 0.875000 S
0.123797 0.122373 0.624589 S
0.623797 0.122373 0.624589 S
0.123797 0.622373 0.624589 S
0.623797 0.622373 0.624589 S
0.376203 0.372373 0.625411 S
0.876203 0.372373 0.625411 S
0.376203 0.872373 0.625411 S
0.876203 0.872373 0.625411 S
0.375000 0.122072 0.375000 S
0.875000 0.122072 0.375000 S
0.375000 0.622072 0.375000 S
0.875000 0.622072 0.375000 S
0.125000 0.374252 0.375000 S
0.625000 0.374252 0.375000 S
0.125000 0.874252 0.375000 S
0.625000 0.874252 0.375000 S
-0.000805 0.002288 0.499994 Cu
0.499195 0.002288 0.499994 Cu
-0.000805 0.502288 0.499994 Cu
0.499195 0.502288 0.499994 Cu
0.250805 0.002288 0.250006 Cu
0.750805 0.002288 0.250006 Cu
0.250805 0.502288 0.250006 Cu
0.750805 0.502288 0.250006 Cu
0.249195 0.252289 -0.000006 Cu
0.749195 0.252289 -0.000006 Cu
0.249195 0.752289 -0.000006 Cu
0.749195 0.752289 -0.000006 Cu
0.000805 0.252289 0.750006 Cu
0.500805 0.252289 0.750006 Cu
0.000805 0.752289 0.750006 Cu
0.500805 0.752289 0.750006 Cu
-0.000415 0.002176 0.000118 Fe
0.499585 0.002176 0.000118 Fe
-0.000415 0.502176 0.000118 Fe
0.499585 0.502176 0.000118 Fe
0.250415 0.002176 0.749882 Fe
0.750415 0.002176 0.749882 Fe
0.250415 0.502176 0.749882 Fe
0.750415 0.502176 0.749882 Fe
0.249585 0.252176 0.500118 Fe
0.749585 0.252176 0.500118 Fe
0.249585 0.752176 0.500118 Fe
0.749585 0.752176 0.500118 Fe
0.000415 0.252176 0.249882 Fe
0.500415 0.252176 0.249882 Fe
0.000415 0.752176 0.249882 Fe
0.500415 0.752176 0.249882 Fe
