sm_isp_SD0310437-standardized_unitcell  
   1.00000000000000     
     5.4165492251857330    0.0000000000000000    0.0000000000000000
     0.0000000000000000    5.0445883454906584    0.0000000000000000
     0.0000000000000000    0.0000000000000000   10.7205847866360031
   S    Cu   Fe
     8     4     4
Direct
  0.2522445888181934  0.2500000000000000  0.1250000000000000
  0.7477554411818019  0.7500000000000000  0.1250000000000000
  0.2500000000000000  0.7479131111819726  0.8750000000000000
  0.7500000000000000  0.2520869188180228  0.8750000000000000
  0.2477554111817994  0.2500000000000000  0.6250000000000000
  0.7522445588181981  0.7500000000000000  0.6250000000000000
  0.7500000000000000  0.2479130811819701  0.3750000000000000
  0.2500000000000000  0.7520868888180274  0.3750000000000000
  0.0000000000000000  0.0000000000000000  0.4996033775568733
  0.5000000000000000  0.0000000000000000  0.2503966224431267
  0.5000000000000000  0.5000000000000000  0.9996033775568733
  0.0000000000000000  0.5000000000000000  0.7503966224431267
  0.0000000000000000  0.0000000000000000  0.9998945395130079
  0.5000000000000000  0.0000000000000000  0.7501054604869921
  0.5000000000000000  0.5000000000000000  0.4998945395130079
  0.0000000000000000  0.5000000000000000  0.2501054604869921
 
  0.00000000E+00  0.00000000E+00  0.00000000E+00
  0.00000000E+00  0.00000000E+00  0.00000000E+00
  0.00000000E+00  0.00000000E+00  0.00000000E+00
  0.00000000E+00  0.00000000E+00  0.00000000E+00
  0.00000000E+00  0.00000000E+00  0.00000000E+00
  0.00000000E+00  0.00000000E+00  0.00000000E+00
  0.00000000E+00  0.00000000E+00  0.00000000E+00
  0.00000000E+00  0.00000000E+00  0.00000000E+00
  0.00000000E+00  0.00000000E+00  0.00000000E+00
  0.00000000E+00  0.00000000E+00  0.00000000E+00
  0.00000000E+00  0.00000000E+00  0.00000000E+00
  0.00000000E+00  0.00000000E+00  0.00000000E+00
  0.00000000E+00  0.00000000E+00  0.00000000E+00
  0.00000000E+00  0.00000000E+00  0.00000000E+00
  0.00000000E+00  0.00000000E+00  0.00000000E+00
  0.00000000E+00  0.00000000E+00  0.00000000E+00
