Fe16 Cu16 S32
1.0
10.509532 0.146644 0.000000
0.146644 10.509532 0.000000
0.000000 0.000000 10.417600
S Cu Fe
32 16 16
direct
0.126130 0.125160 0.123481 S
0.626130 0.125160 0.123481 S
0.126130 0.625160 0.123481 S
0.626130 0.625160 0.123481 S
0.373870 0.374840 0.123481 S
0.873870 0.374840 0.123481 S
0.373870 0.874840 0.123481 S
0.873870 0.874840 0.123481 S
0.124840 0.373870 0.873481 S
0.624840 0.373870 0.873481 S
0.124840 0.873870 0.873481 S
0.624840 0.873870 0.873481 S
0.375160 0.126130 0.873481 S
0.875160 0.126130 0.873481 S
0.375160 0.626130 0.873481 S
0.875160 0.626130 0.873481 S
0.123870 0.124840 0.623481 S
0.623870 0.124840 0.623481 S
0.123870 0.624840 0.623481 S
0.623870 0.624840 0.623481 S
0.376130 0.375160 0.623481 S
0.876130 0.375160 0.623481 S
0.376130 0.875160 0.623481 S
0.876130 0.875160 0.623481 S
0.374840 0.123870 0.373481 S
0.874840 0.123870 0.373481 S
0.374840 0.623870 0.373481 S
0.874840 0.623870 0.373481 S
0.125160 0.376130 0.373481 S
0.625160 0.376130 0.373481 S
0.125160 0.876130 0.373481 S
0.625160 0.876130 0.373481 S
0.000000 0.000000 0.501311 Cu
0.500000 0.000000 0.501311 Cu
0.000000 0.500000 0.501311 Cu
0.500000 0.500000 0.501311 Cu
0.250000 0.000000 0.251311 Cu
0.750000 0.000000 0.251311 Cu
0.250000 0.500000 0.251311 Cu
0.750000 0.500000 0.251311 Cu
0.250000 0.250000 0.001311 Cu
0.750000 0.250000 0.001311 Cu
0.250000 0.750000 0.001311 Cu
0.750000 0.750000 0.001311 Cu
0.000000 0.250000 0.751311 Cu
0.500000 0.250000 0.751311 Cu
0.000000 0.750000 0.751311 Cu
0.500000 0.750000 0.751311 Cu
0.000000 0.000000 0.001726 Fe
0.500000 0.000000 0.001726 Fe
0.000000 0.500000 0.001726 Fe
0.500000 0.500000 0.001726 Fe
0.250000 0.000000 0.751726 Fe
0.750000 0.000000 0.751726 Fe
0.250000 0.500000 0.751726 Fe
0.750000 0.500000 0.751726 Fe
0.250000 0.250000 0.501726 Fe
0.750000 0.250000 0.501726 Fe
0.250000 0.750000 0.501726 Fe
0.750000 0.750000 0.501726 Fe
0.000000 0.250000 0.251726 Fe
0.500000 0.250000 0.251726 Fe
0.000000 0.750000 0.251726 Fe
0.500000 0.750000 0.251726 Fe
