Fe16 Cu16 S32
1.0
10.502202 0.000000 0.449388
0.000000 10.526070 0.000000
0.444897 0.000000 10.397258
S Cu Fe
32 16 16
direct
0.126397 0.119514 0.125812 S
0.626397 0.119514 0.125812 S
0.126397 0.619514 0.125812 S
0.626397 0.619514 0.125812 S
0.373603 0.369514 0.124188 S
0.873603 0.369514 0.124188 S
0.373603 0.869514 0.124188 S
0.873603 0.869514 0.124188 S
0.125000 0.370695 0.875000 S
0.625000 0.370695 0.875000 S
0.125000 0.870695 0.875000 S
0.625000 0.870695 0.875000 S
0.375000 0.122362 0.875000 S
0.875000 0.122362 0.875000 S
0.375000 0.622362 0.875000 S
0.875000 0.622362 0.875000 S
0.123603 0.119514 0.624188 S
0.623603 0.119514 0.624188 S
0.123603 0.619514 0.624188 S
0.623603 0.619514 0.624188 S
0.376397 0.369514 0.625812 S
0.876397 0.369514 0.625812 S
0.376397 0.869514 0.625812 S
0.876397 0.869514 0.625812 S
0.375000 0.120695 0.375000 S
0.875000 0.120695 0.375000 S
0.375000 0.620695 0.375000 S
0.875000 0.620695 0.375000 S
0.125000 0.372362 0.375000 S
0.625000 0.372362 0.375000 S
0.125000 0.872362 0.375000 S
0.625000 0.872362 0.375000 S
-0.001988 0.004542 0.500009 Cu
0.498012 0.004542 0.500009 Cu
-0.001988 0.504542 0.500009 Cu
0.498012 0.504542 0.500009 Cu
0.251988 0.004542 0.249991 Cu
0.751988 0.004542 0.249991 Cu
0.251988 0.504542 0.249991 Cu
0.751988 0.504542 0.249991 Cu
0.248012 0.254542 0.000009 Cu
0.748012 0.254542 0.000009 Cu
0.248012 0.754542 0.000009 Cu
0.748012 0.754542 0.000009 Cu
0.001988 0.254542 0.749991 Cu
0.501988 0.254542 0.749991 Cu
0.001988 0.754542 0.749991 Cu
0.501988 0.754542 0.749991 Cu
-0.001155 0.004416 0.000655 Fe
0.498845 0.004416 0.000655 Fe
-0.001155 0.504416 0.000655 Fe
0.498845 0.504416 0.000655 Fe
0.251155 0.004416 0.749345 Fe
0.751155 0.004416 0.749345 Fe
0.251155 0.504416 0.749345 Fe
0.751155 0.504416 0.749345 Fe
0.248845 0.254416 0.500655 Fe
0.748845 0.254416 0.500655 Fe
0.248845 0.754416 0.500655 Fe
0.748845 0.754416 0.500655 Fe
0.001155 0.254416 0.249345 Fe
0.501155 0.254416 0.249345 Fe
0.001155 0.754416 0.249345 Fe
0.501155 0.754416 0.249345 Fe
