Fe16 Cu16 S32
1.0
10.508929 0.000000 0.321089
0.000000 10.520578 0.000000
0.317881 0.000000 10.403918
S Cu Fe
32 16 16
direct
0.126269 0.121108 0.125603 S
0.626269 0.121108 0.125603 S
0.126269 0.621108 0.125603 S
0.626269 0.621108 0.125603 S
0.373731 0.371108 0.124397 S
0.873731 0.371108 0.124397 S
0.373731 0.871108 0.124397 S
0.873731 0.871108 0.124397 S
0.125000 0.371429 0.875000 S
0.625000 0.371429 0.875000 S
0.125000 0.871429 0.875000 S
0.625000 0.871429 0.875000 S
0.375000 0.123420 0.875000 S
0.875000 0.123420 0.875000 S
0.375000 0.623420 0.875000 S
0.875000 0.623420 0.875000 S
0.123731 0.121108 0.624397 S
0.623731 0.121108 0.624397 S
0.123731 0.621108 0.624397 S
0.623731 0.621108 0.624397 S
0.376269 0.371108 0.625603 S
0.876269 0.371108 0.625603 S
0.376269 0.871108 0.625603 S
0.876269 0.871108 0.625603 S
0.375000 0.121429 0.375000 S
0.875000 0.121429 0.375000 S
0.375000 0.621429 0.375000 S
0.875000 0.621429 0.375000 S
0.125000 0.373420 0.375000 S
0.625000 0.373420 0.375000 S
0.125000 0.873420 0.375000 S
0.625000 0.873420 0.375000 S
-0.001314 0.003295 0.500009 Cu
0.498686 0.003295 0.500009 Cu
-0.001314 0.503295 0.500009 Cu
0.498686 0.503295 0.500009 Cu
0.251314 0.003295 0.249991 Cu
0.751314 0.003295 0.249991 Cu
0.251314 0.503295 0.249991 Cu
0.751314 0.503295 0.249991 Cu
0.248686 0.253295 0.000009 Cu
0.748686 0.253295 0.000009 Cu
0.248686 0.753295 0.000009 Cu
0.748686 0.753295 0.000009 Cu
0.001314 0.253295 0.749991 Cu
0.501314 0.253295 0.749991 Cu
0.001314 0.753295 0.749991 Cu
0.501314 0.753295 0.749991 Cu
-0.000716 0.003173 0.000307 Fe
0.499284 0.003173 0.000307 Fe
-0.000716 0.503173 0.000307 Fe
0.499284 0.503173 0.000307 Fe
0.250716 0.003173 0.749693 Fe
0.750716 0.003173 0.749693 Fe
0.250716 0.503173 0.749693 Fe
0.750716 0.503173 0.749693 Fe
0.249284 0.253173 0.500307 Fe
0.749284 0.253173 0.500307 Fe
0.249284 0.753173 0.500307 Fe
0.749284 0.753173 0.500307 Fe
0.000716 0.253173 0.249693 Fe
0.500716 0.253173 0.249693 Fe
0.000716 0.753173 0.249693 Fe
0.500716 0.753173 0.249693 Fe
