Fe16 Cu16 S32
1.0
10.495927 0.000000 0.458262
0.000000 10.532364 -0.000000
0.453683 -0.000000 10.391046
S Cu Fe
32 16 16
direct
0.126547 0.119239 0.125815 S
0.626547 0.119239 0.125815 S
0.126547 0.619239 0.125815 S
0.626547 0.619239 0.125815 S
0.373453 0.369239 0.124185 S
0.873453 0.369239 0.124185 S
0.373453 0.869239 0.124185 S
0.873453 0.869239 0.124185 S
0.125000 0.371096 0.875000 S
0.625000 0.371096 0.875000 S
0.125000 0.871096 0.875000 S
0.625000 0.871096 0.875000 S
0.375000 0.122480 0.875000 S
0.875000 0.122480 0.875000 S
0.375000 0.622480 0.875000 S
0.875000 0.622480 0.875000 S
0.123453 0.119239 0.624185 S
0.623453 0.119239 0.624185 S
0.123453 0.619239 0.624185 S
0.623453 0.619239 0.624185 S
0.376547 0.369239 0.625815 S
0.876547 0.369239 0.625815 S
0.376547 0.869239 0.625815 S
0.876547 0.869239 0.625815 S
0.375000 0.121096 0.375000 S
0.875000 0.121096 0.375000 S
0.375000 0.621096 0.375000 S
0.875000 0.621096 0.375000 S
0.125000 0.372480 0.375000 S
0.625000 0.372480 0.375000 S
0.125000 0.872480 0.375000 S
0.625000 0.872480 0.375000 S
-0.002447 0.004481 0.500054 Cu
0.497553 0.004481 0.500054 Cu
-0.002447 0.504481 0.500054 Cu
0.497553 0.504481 0.500054 Cu
0.252447 0.004481 0.249946 Cu
0.752447 0.004481 0.249946 Cu
0.252447 0.504481 0.249946 Cu
0.752447 0.504481 0.249946 Cu
0.247553 0.254481 0.000054 Cu
0.747553 0.254481 0.000054 Cu
0.247553 0.754481 0.000054 Cu
0.747553 0.754481 0.000054 Cu
0.002447 0.254481 0.749946 Cu
0.502447 0.254481 0.749946 Cu
0.002447 0.754481 0.749946 Cu
0.502447 0.754481 0.749946 Cu
-0.001567 0.004492 0.001112 Fe
0.498433 0.004492 0.001112 Fe
-0.001567 0.504492 0.001112 Fe
0.498433 0.504492 0.001112 Fe
0.251567 0.004492 0.748888 Fe
0.751567 0.004492 0.748888 Fe
0.251567 0.504492 0.748888 Fe
0.751567 0.504492 0.748888 Fe
0.248433 0.254492 0.501112 Fe
0.748433 0.254492 0.501112 Fe
0.248433 0.754492 0.501112 Fe
0.748433 0.754492 0.501112 Fe
0.001567 0.254492 0.248888 Fe
0.501567 0.254492 0.248888 Fe
0.001567 0.754492 0.248888 Fe
0.501567 0.754492 0.248888 Fe
