generated by phonopy                    
   1.00000000000000     
    10.5159301757999994    0.0000000000000000    0.0000000000000000
     0.0000000000000000   10.5187958725743425    0.0000000000000000
     0.5448617676000000    0.0000000000000000   10.3965818636999998
   S    Cu   Fe
    32    16    16
Direct
  0.1262140536700045  0.1217165394989550  0.1255132841341293
  0.6262140386699997  0.1217165394989550  0.1255132841341293
  0.1262140536700045  0.6217165394989550  0.1255132841341293
  0.6262140386699997  0.6217165394989550  0.1255132841341293
  0.3737861248252230  0.3717165893383410  0.1244866939554328
  0.8737861248252301  0.3717165893383410  0.1244866939554328
  0.3737861248252230  0.8717165893383481  0.1244866939554328
  0.8737861248252301  0.8717165893383481  0.1244866939554328
  0.1250000000000000  0.3716299099039375  0.8750000000000000
  0.6250000000000000  0.3716299099039375  0.8750000000000000
  0.1250000000000000  0.8716299099039446  0.8750000000000000
  0.6250000000000000  0.8716299099039446  0.8750000000000000
  0.3750000000000000  0.1237759019852760  0.8750000000000000
  0.8750000000000000  0.1237759019852760  0.8750000000000000
  0.3750000000000000  0.6237758869852641  0.8750000000000000
  0.8750000000000000  0.6237758869852641  0.8750000000000000
  0.1237859533299996  0.1217165394989550  0.6244867158658707
  0.6237859613300003  0.1217165394989550  0.6244867158658707
  0.1237859533299996  0.6217165394989550  0.6244867158658707
  0.6237859613300003  0.6217165394989550  0.6244867158658707
  0.3762138751747770  0.3717165893383410  0.6255133060445672
  0.8762138751747699  0.3717165893383410  0.6255133060445672
  0.3762138751747770  0.8717165893383481  0.6255133060445672
  0.8762138751747699  0.8717165893383481  0.6255133060445672
  0.3750000000000000  0.1216299238725114  0.3750000000000000
  0.8750000000000000  0.1216299238725114  0.3750000000000000
  0.3750000000000000  0.6216299318725120  0.3750000000000000
  0.8750000000000000  0.6216299318725120  0.3750000000000000
  0.1250000000000000  0.3737754612092417  0.3750000000000000
  0.6250000000000000  0.3737754612092417  0.3750000000000000
  0.1250000000000000  0.8737754612092274  0.3750000000000000
  0.6250000000000000  0.8737754612092274  0.3750000000000000
  0.9989936584301802  0.0028598331201195  0.4999918917213932
  0.4989936584301802  0.0028598331201195  0.4999918917213932
  0.9989936584301802  0.5028598331201195  0.4999918917213932
  0.4989936584301802  0.5028598331201195  0.4999918917213932
  0.2510063415698198  0.0028598331201195  0.2500081082786068
  0.7510063415698269  0.0028598331201195  0.2500081082786068
  0.2510063415698198  0.5028598331201195  0.2500081082786068
  0.7510063415698269  0.5028598331201195  0.2500081082786068
  0.2489931532546308  0.2528611599344686  0.9999929275874422
  0.7489931532546237  0.2528611599344686  0.9999929275874422
  0.2489931532546308  0.7528611599344686  0.9999929275874422
  0.7489931532546237  0.7528611599344686  0.9999929275874422
  0.0010068467453692  0.2528611599344686  0.7500070724125578
  0.5010068467453763  0.2528611599344686  0.7500070724125578
  0.0010068467453692  0.7528611599344686  0.7500070724125578
  0.5010068467453763  0.7528611599344686  0.7500070724125578
  0.9994809979850956  0.0027201911293915  0.0001480185957448
  0.4994809979850956  0.0027201911293915  0.0001480185957448
  0.9994809979850956  0.5027201911293915  0.0001480185957448
  0.4994809979850956  0.5027201911293915  0.0001480185957448
  0.2505190020149044  0.0027201911293915  0.7498519814042552
  0.7505190020148973  0.0027201911293915  0.7498519814042552
  0.2505190020149044  0.5027201911293915  0.7498519814042552
  0.7505190020148973  0.5027201911293915  0.7498519814042552
  0.2494808661871772  0.2527200919932469  0.5001480922702157
  0.7494808661871843  0.2527200919932469  0.5001480922702157
  0.2494808661871772  0.7527200919932397  0.5001480922702157
  0.7494808661871843  0.7527200919932397  0.5001480922702157
  0.0005191338128228  0.2527200919932469  0.2498519077297843
  0.5005191338128157  0.2527200919932469  0.2498519077297843
  0.0005191338128228  0.7527200919932397  0.2498519077297843
  0.5005191338128157  0.7527200919932397  0.2498519077297843
 
  0.00000000E+00  0.00000000E+00  0.00000000E+00
  0.00000000E+00  0.00000000E+00  0.00000000E+00
  0.00000000E+00  0.00000000E+00  0.00000000E+00
  0.00000000E+00  0.00000000E+00  0.00000000E+00
  0.00000000E+00  0.00000000E+00  0.00000000E+00
  0.00000000E+00  0.00000000E+00  0.00000000E+00
  0.00000000E+00  0.00000000E+00  0.00000000E+00
  0.00000000E+00  0.00000000E+00  0.00000000E+00
  0.00000000E+00  0.00000000E+00  0.00000000E+00
  0.00000000E+00  0.00000000E+00  0.00000000E+00
  0.00000000E+00  0.00000000E+00  0.00000000E+00
  0.00000000E+00  0.00000000E+00  0.00000000E+00
  0.00000000E+00  0.00000000E+00  0.00000000E+00
  0.00000000E+00  0.00000000E+00  0.00000000E+00
  0.00000000E+00  0.00000000E+00  0.00000000E+00
  0.00000000E+00  0.00000000E+00  0.00000000E+00
  0.00000000E+00  0.00000000E+00  0.00000000E+00
  0.00000000E+00  0.00000000E+00  0.00000000E+00
  0.00000000E+00  0.00000000E+00  0.00000000E+00
  0.00000000E+00  0.00000000E+00  0.00000000E+00
  0.00000000E+00  0.00000000E+00  0.00000000E+00
  0.00000000E+00  0.00000000E+00  0.00000000E+00
  0.00000000E+00  0.00000000E+00  0.00000000E+00
  0.00000000E+00  0.00000000E+00  0.00000000E+00
  0.00000000E+00  0.00000000E+00  0.00000000E+00
  0.00000000E+00  0.00000000E+00  0.00000000E+00
  0.00000000E+00  0.00000000E+00  0.00000000E+00
  0.00000000E+00  0.00000000E+00  0.00000000E+00
  0.00000000E+00  0.00000000E+00  0.00000000E+00
  0.00000000E+00  0.00000000E+00  0.00000000E+00
  0.00000000E+00  0.00000000E+00  0.00000000E+00
  0.00000000E+00  0.00000000E+00  0.00000000E+00
  0.00000000E+00  0.00000000E+00  0.00000000E+00
  0.00000000E+00  0.00000000E+00  0.00000000E+00
  0.00000000E+00  0.00000000E+00  0.00000000E+00
  0.00000000E+00  0.00000000E+00  0.00000000E+00
  0.00000000E+00  0.00000000E+00  0.00000000E+00
  0.00000000E+00  0.00000000E+00  0.00000000E+00
  0.00000000E+00  0.00000000E+00  0.00000000E+00
  0.00000000E+00  0.00000000E+00  0.00000000E+00
  0.00000000E+00  0.00000000E+00  0.00000000E+00
  0.00000000E+00  0.00000000E+00  0.00000000E+00
  0.00000000E+00  0.00000000E+00  0.00000000E+00
  0.00000000E+00  0.00000000E+00  0.00000000E+00
  0.00000000E+00  0.00000000E+00  0.00000000E+00
  0.00000000E+00  0.00000000E+00  0.00000000E+00
  0.00000000E+00  0.00000000E+00  0.00000000E+00
  0.00000000E+00  0.00000000E+00  0.00000000E+00
  0.00000000E+00  0.00000000E+00  0.00000000E+00
  0.00000000E+00  0.00000000E+00  0.00000000E+00
  0.00000000E+00  0.00000000E+00  0.00000000E+00
  0.00000000E+00  0.00000000E+00  0.00000000E+00
  0.00000000E+00  0.00000000E+00  0.00000000E+00
  0.00000000E+00  0.00000000E+00  0.00000000E+00
  0.00000000E+00  0.00000000E+00  0.00000000E+00
  0.00000000E+00  0.00000000E+00  0.00000000E+00
  0.00000000E+00  0.00000000E+00  0.00000000E+00
  0.00000000E+00  0.00000000E+00  0.00000000E+00
  0.00000000E+00  0.00000000E+00  0.00000000E+00
  0.00000000E+00  0.00000000E+00  0.00000000E+00
  0.00000000E+00  0.00000000E+00  0.00000000E+00
  0.00000000E+00  0.00000000E+00  0.00000000E+00
  0.00000000E+00  0.00000000E+00  0.00000000E+00
  0.00000000E+00  0.00000000E+00  0.00000000E+00
