Fe16 Cu16 S32
1.0
10.513373 0.000000 0.073355
0.000000 10.517934 0.000000
0.072622 0.000000 10.408318
S Cu Fe
32 16 16
direct
0.126204 0.124094 0.125132 S
0.626204 0.124094 0.125132 S
0.126204 0.624094 0.125132 S
0.626204 0.624094 0.125132 S
0.373796 0.374094 0.124868 S
0.873796 0.374094 0.124868 S
0.373796 0.874094 0.124868 S
0.873796 0.874094 0.124868 S
0.125000 0.373354 0.875000 S
0.625000 0.373354 0.875000 S
0.125000 0.873354 0.875000 S
0.625000 0.873354 0.875000 S
0.375000 0.125548 0.875000 S
0.875000 0.125548 0.875000 S
0.375000 0.625548 0.875000 S
0.875000 0.625548 0.875000 S
0.123796 0.124094 0.624868 S
0.623796 0.124094 0.624868 S
0.123796 0.624094 0.624868 S
0.623796 0.624094 0.624868 S
0.376204 0.374094 0.625132 S
0.876204 0.374094 0.625132 S
0.376204 0.874094 0.625132 S
0.876204 0.874094 0.625132 S
0.375000 0.123354 0.375000 S
0.875000 0.123354 0.375000 S
0.375000 0.623354 0.375000 S
0.875000 0.623354 0.375000 S
0.125000 0.375548 0.375000 S
0.625000 0.375548 0.375000 S
0.125000 0.875548 0.375000 S
0.625000 0.875548 0.375000 S
-0.000349 0.000735 0.500003 Cu
0.499651 0.000735 0.500003 Cu
-0.000349 0.500735 0.500003 Cu
0.499651 0.500735 0.500003 Cu
0.250349 0.000735 0.249997 Cu
0.750349 0.000735 0.249997 Cu
0.250349 0.500735 0.249997 Cu
0.750349 0.500735 0.249997 Cu
0.249651 0.250735 0.000003 Cu
0.749651 0.250735 0.000003 Cu
0.249651 0.750735 0.000003 Cu
0.749651 0.750735 0.000003 Cu
0.000349 0.250735 0.749997 Cu
0.500349 0.250735 0.749997 Cu
0.000349 0.750735 0.749997 Cu
0.500349 0.750735 0.749997 Cu
-0.000209 0.000720 0.000129 Fe
0.499791 0.000720 0.000129 Fe
-0.000209 0.500720 0.000129 Fe
0.499791 0.500720 0.000129 Fe
0.250209 0.000720 0.749871 Fe
0.750209 0.000720 0.749871 Fe
0.250209 0.500720 0.749871 Fe
0.750209 0.500720 0.749871 Fe
0.249791 0.250720 0.500129 Fe
0.749791 0.250720 0.500129 Fe
0.249791 0.750720 0.500129 Fe
0.749791 0.750720 0.500129 Fe
0.000209 0.250720 0.249871 Fe
0.500209 0.250720 0.249871 Fe
0.000209 0.750720 0.249871 Fe
0.500209 0.750720 0.249871 Fe
