Fe16 Cu16 S32
1.0
10.515815 0.000000 0.027530
0.000000 10.516020 -0.000000
0.027255 -0.000000 10.410735
S Cu Fe
32 16 16
direct
0.126159 0.124672 0.125055 S
0.626159 0.124672 0.125055 S
0.126159 0.624672 0.125055 S
0.626159 0.624672 0.125055 S
0.373841 0.374672 0.124945 S
0.873841 0.374672 0.124945 S
0.373841 0.874672 0.124945 S
0.873841 0.874672 0.124945 S
0.125000 0.373616 0.875000 S
0.625000 0.373616 0.875000 S
0.125000 0.873616 0.875000 S
0.625000 0.873616 0.875000 S
0.375000 0.125924 0.875000 S
0.875000 0.125924 0.875000 S
0.375000 0.625924 0.875000 S
0.875000 0.625924 0.875000 S
0.123841 0.124672 0.624945 S
0.623841 0.124672 0.624945 S
0.123841 0.624672 0.624945 S
0.623841 0.624672 0.624945 S
0.376159 0.374672 0.625055 S
0.876159 0.374672 0.625055 S
0.376159 0.874672 0.625055 S
0.876159 0.874672 0.625055 S
0.375000 0.123616 0.375000 S
0.875000 0.123616 0.375000 S
0.375000 0.623616 0.375000 S
0.875000 0.623616 0.375000 S
0.125000 0.375924 0.375000 S
0.625000 0.375924 0.375000 S
0.125000 0.875924 0.375000 S
0.625000 0.875924 0.375000 S
-0.000101 0.000283 0.499999 Cu
0.499899 0.000283 0.499999 Cu
-0.000101 0.500283 0.499999 Cu
0.499899 0.500283 0.499999 Cu
0.250101 0.000283 0.250001 Cu
0.750101 0.000283 0.250001 Cu
0.250101 0.500283 0.250001 Cu
0.750101 0.500283 0.250001 Cu
0.249899 0.250283 -0.000001 Cu
0.749899 0.250283 -0.000001 Cu
0.249899 0.750283 -0.000001 Cu
0.749899 0.750283 -0.000001 Cu
0.000101 0.250283 0.750001 Cu
0.500101 0.250283 0.750001 Cu
0.000101 0.750283 0.750001 Cu
0.500101 0.750283 0.750001 Cu
-0.000050 0.000275 0.000005 Fe
0.499950 0.000275 0.000005 Fe
-0.000050 0.500275 0.000005 Fe
0.499950 0.500275 0.000005 Fe
0.250050 0.000275 0.749995 Fe
0.750050 0.000275 0.749995 Fe
0.250050 0.500275 0.749995 Fe
0.750050 0.500275 0.749995 Fe
0.249950 0.250275 0.500005 Fe
0.749950 0.250275 0.500005 Fe
0.249950 0.750275 0.500005 Fe
0.749950 0.750275 0.500005 Fe
0.000050 0.250275 0.249995 Fe
0.500050 0.250275 0.249995 Fe
0.000050 0.750275 0.249995 Fe
0.500050 0.750275 0.249995 Fe
