Fe16 Cu16 S32                           
   1.00000000000000     
    10.4959270000000000    0.4582620000000000    0.0000000000000000
     0.4582620000000000   10.4959270000000000    0.0000000000000000
     0.0000000000000000    0.0000000000000000   10.4344301984498369
   S    Cu   Fe
    32    16    16
Direct
  0.1261031064248925  0.1255072531427786  0.1201653509960394
  0.6261031064248996  0.1255072531427786  0.1201653509960394
  0.1261031064248925  0.6255072531427714  0.1201653509960394
  0.6261031064248996  0.6255072531427714  0.1201653509960394
  0.3738968935751146  0.3744927468572214  0.1201653509960394
  0.8738968935751004  0.3744927468572214  0.1201653509960394
  0.3738968935751146  0.8744927468572286  0.1201653509960394
  0.8738968935751004  0.8744927468572286  0.1201653509960394
  0.1244927468572214  0.3738968935751146  0.8701653509960536
  0.6244927468572286  0.3738968935751146  0.8701653509960536
  0.1244927468572214  0.8738968935751004  0.8701653509960536
  0.6244927468572286  0.8738968935751004  0.8701653509960536
  0.3755072531427786  0.1261031064248925  0.8701653509960536
  0.8755072531427714  0.1261031064248925  0.8701653509960536
  0.3755072531427786  0.6261031064248996  0.8701653509960536
  0.8755072531427714  0.6261031064248996  0.8701653509960536
  0.1238968935751075  0.1244927468572214  0.6201653509960536
  0.6238968935751004  0.1244927468572214  0.6201653509960536
  0.1238968935751075  0.6244927468572286  0.6201653509960536
  0.6238968935751004  0.6244927468572286  0.6201653509960536
  0.3761031064248854  0.3755072531427786  0.6201653509960536
  0.8761031064248996  0.3755072531427786  0.6201653509960536
  0.3761031064248854  0.8755072531427714  0.6201653509960536
  0.8761031064248996  0.8755072531427714  0.6201653509960536
  0.3744927468572214  0.1238968935751075  0.3701653509960465
  0.8744927468572286  0.1238968935751075  0.3701653509960465
  0.3744927468572214  0.6238968935751004  0.3701653509960465
  0.8744927468572286  0.6238968935751004  0.3701653509960465
  0.1255072531427786  0.3761031064248854  0.3701653509960465
  0.6255072531427714  0.3761031064248854  0.3701653509960465
  0.1255072531427786  0.8761031064248996  0.3701653509960465
  0.6255072531427714  0.8761031064248996  0.3701653509960465
  0.0000000000000000  0.0000000000000000  0.5041940449633273
  0.5000000000000000  0.0000000000000000  0.5041940449633273
  0.0000000000000000  0.5000000000000000  0.5041940449633273
  0.5000000000000000  0.5000000000000000  0.5041940449633273
  0.2500000000000000  0.0000000000000000  0.2541940449632918
  0.7500000000000000  0.0000000000000000  0.2541940449632918
  0.2500000000000000  0.5000000000000000  0.2541940449632918
  0.7500000000000000  0.5000000000000000  0.2541940449632918
  0.2500000000000000  0.2500000000000000  0.0041940449632918
  0.7500000000000000  0.2500000000000000  0.0041940449632918
  0.2500000000000000  0.7500000000000000  0.0041940449632918
  0.7500000000000000  0.7500000000000000  0.0041940449632918
  0.0000000000000000  0.2500000000000000  0.7541940449633273
  0.5000000000000000  0.2500000000000000  0.7541940449633273
  0.0000000000000000  0.7500000000000000  0.7541940449633273
  0.5000000000000000  0.7500000000000000  0.7541940449633273
  0.0000000000000000  0.0000000000000000  0.0054752530446294
  0.5000000000000000  0.0000000000000000  0.0054752530446294
  0.0000000000000000  0.5000000000000000  0.0054752530446294
  0.5000000000000000  0.5000000000000000  0.0054752530446294
  0.2500000000000000  0.0000000000000000  0.7554752530446578
  0.7500000000000000  0.0000000000000000  0.7554752530446578
  0.2500000000000000  0.5000000000000000  0.7554752530446578
  0.7500000000000000  0.5000000000000000  0.7554752530446578
  0.2500000000000000  0.2500000000000000  0.5054752530446578
  0.7500000000000000  0.2500000000000000  0.5054752530446578
  0.2500000000000000  0.7500000000000000  0.5054752530446578
  0.7500000000000000  0.7500000000000000  0.5054752530446578
  0.0000000000000000  0.2500000000000000  0.2554752530446223
  0.5000000000000000  0.2500000000000000  0.2554752530446223
  0.0000000000000000  0.7500000000000000  0.2554752530446223
  0.5000000000000000  0.7500000000000000  0.2554752530446223
 
  0.00000000E+00  0.00000000E+00  0.00000000E+00
  0.00000000E+00  0.00000000E+00  0.00000000E+00
  0.00000000E+00  0.00000000E+00  0.00000000E+00
  0.00000000E+00  0.00000000E+00  0.00000000E+00
  0.00000000E+00  0.00000000E+00  0.00000000E+00
  0.00000000E+00  0.00000000E+00  0.00000000E+00
  0.00000000E+00  0.00000000E+00  0.00000000E+00
  0.00000000E+00  0.00000000E+00  0.00000000E+00
  0.00000000E+00  0.00000000E+00  0.00000000E+00
  0.00000000E+00  0.00000000E+00  0.00000000E+00
  0.00000000E+00  0.00000000E+00  0.00000000E+00
  0.00000000E+00  0.00000000E+00  0.00000000E+00
  0.00000000E+00  0.00000000E+00  0.00000000E+00
  0.00000000E+00  0.00000000E+00  0.00000000E+00
  0.00000000E+00  0.00000000E+00  0.00000000E+00
  0.00000000E+00  0.00000000E+00  0.00000000E+00
  0.00000000E+00  0.00000000E+00  0.00000000E+00
  0.00000000E+00  0.00000000E+00  0.00000000E+00
  0.00000000E+00  0.00000000E+00  0.00000000E+00
  0.00000000E+00  0.00000000E+00  0.00000000E+00
  0.00000000E+00  0.00000000E+00  0.00000000E+00
  0.00000000E+00  0.00000000E+00  0.00000000E+00
  0.00000000E+00  0.00000000E+00  0.00000000E+00
  0.00000000E+00  0.00000000E+00  0.00000000E+00
  0.00000000E+00  0.00000000E+00  0.00000000E+00
  0.00000000E+00  0.00000000E+00  0.00000000E+00
  0.00000000E+00  0.00000000E+00  0.00000000E+00
  0.00000000E+00  0.00000000E+00  0.00000000E+00
  0.00000000E+00  0.00000000E+00  0.00000000E+00
  0.00000000E+00  0.00000000E+00  0.00000000E+00
  0.00000000E+00  0.00000000E+00  0.00000000E+00
  0.00000000E+00  0.00000000E+00  0.00000000E+00
  0.00000000E+00  0.00000000E+00  0.00000000E+00
  0.00000000E+00  0.00000000E+00  0.00000000E+00
  0.00000000E+00  0.00000000E+00  0.00000000E+00
  0.00000000E+00  0.00000000E+00  0.00000000E+00
  0.00000000E+00  0.00000000E+00  0.00000000E+00
  0.00000000E+00  0.00000000E+00  0.00000000E+00
  0.00000000E+00  0.00000000E+00  0.00000000E+00
  0.00000000E+00  0.00000000E+00  0.00000000E+00
  0.00000000E+00  0.00000000E+00  0.00000000E+00
  0.00000000E+00  0.00000000E+00  0.00000000E+00
  0.00000000E+00  0.00000000E+00  0.00000000E+00
  0.00000000E+00  0.00000000E+00  0.00000000E+00
  0.00000000E+00  0.00000000E+00  0.00000000E+00
  0.00000000E+00  0.00000000E+00  0.00000000E+00
  0.00000000E+00  0.00000000E+00  0.00000000E+00
  0.00000000E+00  0.00000000E+00  0.00000000E+00
  0.00000000E+00  0.00000000E+00  0.00000000E+00
  0.00000000E+00  0.00000000E+00  0.00000000E+00
  0.00000000E+00  0.00000000E+00  0.00000000E+00
  0.00000000E+00  0.00000000E+00  0.00000000E+00
  0.00000000E+00  0.00000000E+00  0.00000000E+00
  0.00000000E+00  0.00000000E+00  0.00000000E+00
  0.00000000E+00  0.00000000E+00  0.00000000E+00
  0.00000000E+00  0.00000000E+00  0.00000000E+00
  0.00000000E+00  0.00000000E+00  0.00000000E+00
  0.00000000E+00  0.00000000E+00  0.00000000E+00
  0.00000000E+00  0.00000000E+00  0.00000000E+00
  0.00000000E+00  0.00000000E+00  0.00000000E+00
  0.00000000E+00  0.00000000E+00  0.00000000E+00
  0.00000000E+00  0.00000000E+00  0.00000000E+00
  0.00000000E+00  0.00000000E+00  0.00000000E+00
  0.00000000E+00  0.00000000E+00  0.00000000E+00
