Fe16 Cu16 S32
1.0
10.511933 0.091652 0.000000
0.091652 10.511933 0.000000
0.000000 0.000000 10.414861
S Cu Fe
32 16 16
direct
0.126139 0.125090 0.124063 S
0.626139 0.125090 0.124063 S
0.126139 0.625090 0.124063 S
0.626139 0.625090 0.124063 S
0.373861 0.374910 0.124063 S
0.873861 0.374910 0.124063 S
0.373861 0.874910 0.124063 S
0.873861 0.874910 0.124063 S
0.124910 0.373861 0.874063 S
0.624910 0.373861 0.874063 S
0.124910 0.873861 0.874063 S
0.624910 0.873861 0.874063 S
0.375090 0.126139 0.874063 S
0.875090 0.126139 0.874063 S
0.375090 0.626139 0.874063 S
0.875090 0.626139 0.874063 S
0.123861 0.124910 0.624063 S
0.623861 0.124910 0.624063 S
0.123861 0.624910 0.624063 S
0.623861 0.624910 0.624063 S
0.376139 0.375090 0.624063 S
0.876139 0.375090 0.624063 S
0.376139 0.875090 0.624063 S
0.876139 0.875090 0.624063 S
0.374910 0.123861 0.374063 S
0.874910 0.123861 0.374063 S
0.374910 0.623861 0.374063 S
0.874910 0.623861 0.374063 S
0.125090 0.376139 0.374063 S
0.625090 0.376139 0.374063 S
0.125090 0.876139 0.374063 S
0.625090 0.876139 0.374063 S
0.000000 0.000000 0.500820 Cu
0.500000 0.000000 0.500820 Cu
0.000000 0.500000 0.500820 Cu
0.500000 0.500000 0.500820 Cu
0.250000 0.000000 0.250820 Cu
0.750000 0.000000 0.250820 Cu
0.250000 0.500000 0.250820 Cu
0.750000 0.500000 0.250820 Cu
0.250000 0.250000 0.000820 Cu
0.750000 0.250000 0.000820 Cu
0.250000 0.750000 0.000820 Cu
0.750000 0.750000 0.000820 Cu
0.000000 0.250000 0.750820 Cu
0.500000 0.250000 0.750820 Cu
0.000000 0.750000 0.750820 Cu
0.500000 0.750000 0.750820 Cu
0.000000 0.000000 0.001054 Fe
0.500000 0.000000 0.001054 Fe
0.000000 0.500000 0.001054 Fe
0.500000 0.500000 0.001054 Fe
0.250000 0.000000 0.751054 Fe
0.750000 0.000000 0.751054 Fe
0.250000 0.500000 0.751054 Fe
0.750000 0.500000 0.751054 Fe
0.250000 0.250000 0.501054 Fe
0.750000 0.250000 0.501054 Fe
0.250000 0.750000 0.501054 Fe
0.750000 0.750000 0.501054 Fe
0.000000 0.250000 0.251054 Fe
0.500000 0.250000 0.251054 Fe
0.000000 0.750000 0.251054 Fe
0.500000 0.750000 0.251054 Fe
