Fe16 Cu16 S32
1.0
10.487924 0.641567 0.000000
0.641567 10.487924 0.000000
0.000000 0.000000 10.441452
S Cu Fe
32 16 16
direct
0.126051 0.125694 0.118310 S
0.626051 0.125694 0.118310 S
0.126051 0.625694 0.118310 S
0.626051 0.625694 0.118310 S
0.373949 0.374306 0.118310 S
0.873949 0.374306 0.118310 S
0.373949 0.874306 0.118310 S
0.873949 0.874306 0.118310 S
0.124306 0.373949 0.868310 S
0.624306 0.373949 0.868310 S
0.124306 0.873949 0.868310 S
0.624306 0.873949 0.868310 S
0.375694 0.126051 0.868310 S
0.875694 0.126051 0.868310 S
0.375694 0.626051 0.868310 S
0.875694 0.626051 0.868310 S
0.123949 0.124306 0.618310 S
0.623949 0.124306 0.618310 S
0.123949 0.624306 0.618310 S
0.623949 0.624306 0.618310 S
0.376051 0.375694 0.618310 S
0.876051 0.375694 0.618310 S
0.376051 0.875694 0.618310 S
0.876051 0.875694 0.618310 S
0.374306 0.123949 0.368310 S
0.874306 0.123949 0.368310 S
0.374306 0.623949 0.368310 S
0.874306 0.623949 0.368310 S
0.125694 0.376051 0.368310 S
0.625694 0.376051 0.368310 S
0.125694 0.876051 0.368310 S
0.625694 0.876051 0.368310 S
0.000000 0.000000 0.505803 Cu
0.500000 0.000000 0.505803 Cu
0.000000 0.500000 0.505803 Cu
0.500000 0.500000 0.505803 Cu
0.250000 0.000000 0.255803 Cu
0.750000 0.000000 0.255803 Cu
0.250000 0.500000 0.255803 Cu
0.750000 0.500000 0.255803 Cu
0.250000 0.250000 0.005803 Cu
0.750000 0.250000 0.005803 Cu
0.250000 0.750000 0.005803 Cu
0.750000 0.750000 0.005803 Cu
0.000000 0.250000 0.755803 Cu
0.500000 0.250000 0.755803 Cu
0.000000 0.750000 0.755803 Cu
0.500000 0.750000 0.755803 Cu
0.000000 0.000000 0.007578 Fe
0.500000 0.000000 0.007578 Fe
0.000000 0.500000 0.007578 Fe
0.500000 0.500000 0.007578 Fe
0.250000 0.000000 0.757578 Fe
0.750000 0.000000 0.757578 Fe
0.250000 0.500000 0.757578 Fe
0.750000 0.500000 0.757578 Fe
0.250000 0.250000 0.507578 Fe
0.750000 0.250000 0.507578 Fe
0.250000 0.750000 0.507578 Fe
0.750000 0.750000 0.507578 Fe
0.000000 0.250000 0.257578 Fe
0.500000 0.250000 0.257578 Fe
0.000000 0.750000 0.257578 Fe
0.500000 0.750000 0.257578 Fe
