Fe16 Cu16 S32
1.0
10.504731 0.256627 0.000000
0.256627 10.504731 0.000000
0.000000 0.000000 10.423093
S Cu Fe
32 16 16
direct
0.126115 0.125278 0.122324 S
0.626115 0.125278 0.122324 S
0.126115 0.625278 0.122324 S
0.626115 0.625278 0.122324 S
0.373885 0.374722 0.122324 S
0.873885 0.374722 0.122324 S
0.373885 0.874722 0.122324 S
0.873885 0.874722 0.122324 S
0.124722 0.373885 0.872324 S
0.624722 0.373885 0.872324 S
0.124722 0.873885 0.872324 S
0.624722 0.873885 0.872324 S
0.375278 0.126115 0.872324 S
0.875278 0.126115 0.872324 S
0.375278 0.626115 0.872324 S
0.875278 0.626115 0.872324 S
0.123885 0.124722 0.622324 S
0.623885 0.124722 0.622324 S
0.123885 0.624722 0.622324 S
0.623885 0.624722 0.622324 S
0.376115 0.375278 0.622324 S
0.876115 0.375278 0.622324 S
0.376115 0.875278 0.622324 S
0.876115 0.875278 0.622324 S
0.374722 0.123885 0.372324 S
0.874722 0.123885 0.372324 S
0.374722 0.623885 0.372324 S
0.874722 0.623885 0.372324 S
0.125278 0.376115 0.372324 S
0.625278 0.376115 0.372324 S
0.125278 0.876115 0.372324 S
0.625278 0.876115 0.372324 S
0.000000 0.000000 0.502321 Cu
0.500000 0.000000 0.502321 Cu
0.000000 0.500000 0.502321 Cu
0.500000 0.500000 0.502321 Cu
0.250000 0.000000 0.252321 Cu
0.750000 0.000000 0.252321 Cu
0.250000 0.500000 0.252321 Cu
0.750000 0.500000 0.252321 Cu
0.250000 0.250000 0.002321 Cu
0.750000 0.250000 0.002321 Cu
0.250000 0.750000 0.002321 Cu
0.750000 0.750000 0.002321 Cu
0.000000 0.250000 0.752321 Cu
0.500000 0.250000 0.752321 Cu
0.000000 0.750000 0.752321 Cu
0.500000 0.750000 0.752321 Cu
0.000000 0.000000 0.003031 Fe
0.500000 0.000000 0.003031 Fe
0.000000 0.500000 0.003031 Fe
0.500000 0.500000 0.003031 Fe
0.250000 0.000000 0.753031 Fe
0.750000 0.000000 0.753031 Fe
0.250000 0.500000 0.753031 Fe
0.750000 0.500000 0.753031 Fe
0.250000 0.250000 0.503031 Fe
0.750000 0.250000 0.503031 Fe
0.250000 0.750000 0.503031 Fe
0.750000 0.750000 0.503031 Fe
0.000000 0.250000 0.253031 Fe
0.500000 0.250000 0.253031 Fe
0.000000 0.750000 0.253031 Fe
0.500000 0.750000 0.253031 Fe
