sm_isp_SD0310437-standardized_unitcell  
   1.00000000000000     
     5.5217249382961358    0.0000000000000000    0.0000000000000000
     0.0000000000000000    5.5217249382961358    0.0000000000000000
     0.0000000000000000    0.0000000000000000    9.6714298936904868
   S    Cu   Fe
     8     4     4
Direct
  0.2508838854136428  0.2500000000000000  0.1250000000000000
  0.7491161445863526  0.7500000000000000  0.1250000000000000
  0.2500000000000000  0.7491161445863526  0.8750000000000000
  0.7500000000000000  0.2508838854136428  0.8750000000000000
  0.2491161145863501  0.2500000000000000  0.6250000000000000
  0.7508838554136474  0.7500000000000000  0.6250000000000000
  0.7500000000000000  0.2491161145863501  0.3750000000000000
  0.2500000000000000  0.7508838554136474  0.3750000000000000
  0.0000000000000000  0.0000000000000000  0.5000000000000000
  0.5000000000000000  0.0000000000000000  0.2500000000000000
  0.5000000000000000  0.5000000000000000  0.0000000000000000
  0.0000000000000000  0.5000000000000000  0.7500000000000000
  0.0000000000000000  0.0000000000000000  0.0000000000000000
  0.5000000000000000  0.0000000000000000  0.7500000000000000
  0.5000000000000000  0.5000000000000000  0.5000000000000000
  0.0000000000000000  0.5000000000000000  0.2500000000000000
 
  0.00000000E+00  0.00000000E+00  0.00000000E+00
  0.00000000E+00  0.00000000E+00  0.00000000E+00
  0.00000000E+00  0.00000000E+00  0.00000000E+00
  0.00000000E+00  0.00000000E+00  0.00000000E+00
  0.00000000E+00  0.00000000E+00  0.00000000E+00
  0.00000000E+00  0.00000000E+00  0.00000000E+00
  0.00000000E+00  0.00000000E+00  0.00000000E+00
  0.00000000E+00  0.00000000E+00  0.00000000E+00
  0.00000000E+00  0.00000000E+00  0.00000000E+00
  0.00000000E+00  0.00000000E+00  0.00000000E+00
  0.00000000E+00  0.00000000E+00  0.00000000E+00
  0.00000000E+00  0.00000000E+00  0.00000000E+00
  0.00000000E+00  0.00000000E+00  0.00000000E+00
  0.00000000E+00  0.00000000E+00  0.00000000E+00
  0.00000000E+00  0.00000000E+00  0.00000000E+00
  0.00000000E+00  0.00000000E+00  0.00000000E+00
